atoms C H

(Total number of states taken into account)
(nstates 10)

states X a A B C (a A B C)

(Total angular momentum quantum  - a value or an interval)
jrot 0.5 - 5.5

(Defining the integration grid)
grid
  npoints 401
  range   0.5  7.8
  type 0
end

CONTRACTION
 vib
 vmax  30 50 50 50 50
END

PRINT_PECS_AND_COUPLINGS_TO_FILE



symmetry Cs(M)


poten X
name "X2Pi"
lambda 1
mult   2
type   EMO
values
V0           0.00000000000000E+00
RE           1.11210045704045e+00   fit    (  1.11209566327700e+00)  
AE           2.93740000000000E+04
RREF        -1.00000000000000E+00
PL           5.00000000000000E+00
PR           5.00000000000000E+00
NL           2.00000000000000E+00
NR           6.00000000000000E+00
B0           1.95817252295855e+00   fit    (  1.95819448991485e+00)  
B1          -2.77179906058029e-02   fit    ( -2.77035868746045e-02)  
B2           4.99299111352208e-02   fit    (  4.98163321559847e-02)  
B3           2.88940414123453e-01   fit    (  2.87374170143662e-01)  
B4          -7.82927048355493e-01   fit    ( -7.77917138090340e-01)  
B5           7.13598943885866e-01   fit    (  7.09855944763663e-01)  
B6           0.00
end


abinitio poten X
units cm-1 angstroms
name 'X2Pi'
lambda 1
mult   2
type grid
fit_factor 1e-5
values
0.5	203483.7097291240000
0.52	178590.8970390470000
0.54	156617.0969462030000
0.56	137202.3710551420000
0.58	120039.4548819450000
0.6	104864.9788689690000
0.62	91439.7156680159000
0.64	79568.3328571704000
0.66	69068.6664923912000
0.68	59787.0843317198000
0.7	51587.5121037068000
0.72	44351.4335074118000
0.74	37973.5007197760000
0.76	32357.1449029970000
0.78	27423.3551897811000
0.8	23097.5102054634000
0.81	21141.9912399496000
0.82	19315.9623069435000
0.83	17610.6444211937000
0.84	16019.4533437541000
0.85	14537.9995820019000
0.88	10684.0250551300000
0.9	8559.5106234615300
0.91	7615.7697085669400
0.92	6746.6501683387300
0.93	5945.5677638352300
0.94	5212.5224950564400
0.95	4540.9301230622600
0.965	3643.2788807545900
0.97	3371.1303378557400
0.98	2868.5334320161400
0.99	2414.2209450794100
1	2008.1928770424300
1.01	1646.0597352810600
1.02	1325.6267734793500
1.03	1046.8939916388500
1.04	803.2771508163470
1.055	506.9863984668480
1.06	425.7807848588280
1.07	285.3170207821550
1.08	175.5797050962310
1.09	92.1793451753652
1.1	37.3106873324032
1.11	6.5842389416545
1.12	0.0000000000000
1.13	17.5579705089993
1.14	52.6739115285573
1.15	109.7373156859240
1.16	184.3586903507300
1.17	276.5380355276550
1.18	386.2753512120200
1.19	509.1811447796930
1.2	645.2554162306750
1.21	794.4981655618480
1.22	952.5199001490790
1.23	1117.1258736779700
1.24	1352.7268800387900
1.25	1532.6960777622700
1.26	1725.8337533690600
1.27	1927.7504142303500
1.28	2140.6408066605400
1.29	2362.3101843452300
1.3	2590.5638009700200
1.32	3069.0184973589700
1.34	3573.8101495114100
1.36	4100.5492648016600
1.38	4644.8463506009100
1.4	5202.3119142834700
1.42	5772.9459558462200
1.44	6350.1642363521900
1.46	6936.1615021126500
1.48	7524.3535141859600
1.5	8114.7402725736700
1.52	8705.1270309613800
1.54	9295.5137893475400
1.56	9881.5110551080000
1.58	10465.3135745541000
1.6	11044.7266013729000
1.62	11619.7501355644000
1.64	12185.9946845015000
1.66	12745.6549944969000
1.68	13296.5363192378000
1.7	13840.8334050371000
1.72	14374.1567592690000
1.74	14898.7011282448000
1.76	15412.2717656517000
1.78	15917.0634178058000
1.8	16410.8813383893000
1.82	16893.7255274055000
1.84	17363.4012385384000
1.86	17824.2979644168000
1.88	18272.0262124134000
1.9	18708.7807288411000
1.92	19132.3667673871000
1.94	19544.9790743642000
1.96	19946.6176497724000
1.98	20335.0877472988000
2	20710.3893669435000
2.02	21076.9120013321000
2.04	21428.0714115261000
2.06	21770.4518364641000
2.08	22099.6637835203000
2.1	22417.9019990076000
2.12	22722.9717366131000
2.14	23019.2624889642000
2.16	23302.3847634319000
2.18	23574.5333063323000
2.2	23837.9028639767000
2.22	24088.1039437409000
2.24	24329.5260382474000
2.26	24559.9744011866000
2.28	24781.6437788713000
2.3	24992.3394249871000
2.32	25194.2560858484000
2.34	25385.1990151423000
2.36	25569.5577054930000
2.38	25745.1374105893000
2.4	25911.9381304310000
2.42	26069.9598650182000
2.44	26221.3973606638000
2.46	26364.0558710549000
2.48	26500.1301425059000
2.5	26629.6201750136000
2.52	26752.5259685813000
2.54	26868.8475232089000
2.56	26978.5848388932000
2.58	27081.7379156375000
2.6	27180.5014997545000
2.62	27274.8755912443000
2.64	27362.6654437924000
2.68	27525.0766710069000
2.7	27599.6980456733000
2.72	27672.1246740252000
2.74	27737.9670634371000
2.76	27801.6147065346000
2.78	27860.8728570048000
2.8	27917.9362611606000
2.82	27970.6101726891000
2.84	28021.0893379048000
2.86	28067.1790104933000
2.88	28113.2686830802000
3	28334.9380607649000
3.1	28471.0123322143000
3.2	28571.9706626457000
3.3	28650.9815299394000
3.4	28710.2396804096000
3.5	28754.1346066836000
3.6	28789.2505477032000
3.7	28815.5875034667000
3.8	28837.5349666045000
3.9	28852.8981908007000
4	28866.0666686824000
4.1	28874.8456539369000
4.2	28883.6246391914000
4.3	28890.2088781331000
4.4	28894.5983707603000
4.5	28898.9878633876000
4.6	28901.1826097020000
4.7	28903.3773560148000
4.8	28905.5721023292000
4.9	28907.7668486436000
5	28909.9615949564000
end


(T0 exp = 0.742+/0.008 ev  = 5985 cm-1 by Kasdan CPL 1975, 31, 78)

poten a
name 'a4Sigma-'
symmetry -
lambda 0
mult   4
type   EMO
values
V0           5.96618340104651e+03            (  5.96601781983073e+03)
RE           1.0977                       (1.0977  exp)
AE           2.93740000000000E+04         (29286.29033)
RREF        -1.00000000000000E+00
PL           6.00000000000000E+00
PR           6.00000000000000E+00
NL           2.00000000000000E+00
NR           4.00000000000000E+00
B0           2.37752168673799E+00
B1           2.50425293199754E-01
B2           2.06876545462287E-01
B3          -8.83223015993361E-01
B4           1.13216949098993E+00
end

abinitio poten a
name 'a4Sigma-'
symmetry -
lambda 0
mult   4
type grid
fit_factor 1e-5
values
0.5	205750.8826711830000
0.52	180855.8752347930000
0.54	158890.8541272040000
0.56	139498.0756992800000
0.58	122370.2754671040000
0.6	107241.8891267140000
0.62	93873.6893299187000
0.64	82070.3436547964000
0.66	71647.4934109979000
0.68	62453.7011028746000
0.7	54350.6977126642000
0.72	47215.5774468006000
0.74	40947.3819748509000
0.76	35445.1529663835000
0.78	30632.0743004224000
0.8	26431.3298559852000
0.82	22777.0772436617000
0.84	19612.2530592945000
0.85	18196.6416869526000
0.86	16884.1833913550000
0.88	14548.9733135708000
0.9	12564.9226459790000
0.91	11691.4136131220000
0.92	10892.5259549329000
0.93	10163.8701787814000
0.94	9503.2515383561000
0.95	8904.0857947138900
0.965	8116.1718680921400
0.97	7879.1392662112900
0.98	7448.9689887252100
0.99	7069.2778764532900
1	6735.6764367698300
1.01	6448.1646696748300
1.02	6202.3530825394800
1.03	5996.0469290509400
1.04	5829.2462092092100
1.055	5642.6927725425100
1.06	5596.6030999556100
1.07	5530.7607105437500
1.08	5491.2552768969400
1.09	5482.4762916424400
1.1	5500.0342621530000
1.11	5541.7344421126500
1.12	5607.5768315245200
1.13	5695.3666840726300
1.14	5805.1039997570000
1.15	5932.3992859534800
1.16	6077.2525426574000
1.17	6239.6637698718800
1.18	6419.6329675953600
1.19	6612.7706432021500
1.2	6819.0767966906900
1.21	7038.5514280609800
1.22	7271.1945373145800
1.23	7514.8113781355200
1.24	7767.2072042125200
1.25	8030.5767618568700
1.26	8300.5305584428700
1.27	8579.2633402849300
1.28	8866.7751073799300
1.29	9158.6763671037400
1.3	9457.1618657676400
1.32	10069.4960872916000
1.34	10697.1935330133000
1.36	11340.2542029296000
1.38	11989.8991117875000
1.4	12643.9335132711000
1.42	13300.1626610707000
1.44	13954.1970625558000
1.46	14606.0367177266000
1.48	15251.2921339573000
1.5	15887.7685649319000
1.52	16515.4660106520000
1.54	17129.9949784904000
1.56	17729.1607221326000
1.58	18312.9632415802000
1.6	18881.4025368301000
1.62	19430.0891152566000
1.64	19961.2177231741000
1.66	20472.5936142682000
1.68	20962.0220422245000
1.7	21431.6977533590000
1.72	21879.4260013556000
1.74	22307.4015325288000
1.76	22713.4296005643000
1.78	23097.5102054634000
1.8	23461.8380935392000
1.82	23804.2185184772000
1.84	24126.8462265917000
1.86	24431.9159641973000
1.88	24715.0382386650000
1.9	24980.6025426238000
1.92	25228.6088760735000
1.94	25461.2519853271000
1.96	25676.3371240702000
1.98	25876.0590386171000
2	26062.6124752822000
2.02	26235.9974340656000
2.04	26396.2139149657000
2.06	26545.4566642984000
2.08	26681.5309357478000
2.1	26808.8262219427000
2.12	26927.3425228832000
2.14	27037.0798385691000
2.16	27138.0381689989000
2.18	27230.2175141759000
2.2	27318.0073667240000
2.22	27397.0182340176000
2.24	27471.6396086824000
2.26	27539.6767444086000
2.28	27603.3243875061000
2.3	27662.5825379763000
2.32	27717.4511958177000
2.34	27767.9303610335000
2.36	27816.2147799348000
2.38	27860.1097062088000
2.4	27901.8098861700000
2.42	27939.1205735024000
2.44	27974.2365145220000
2.46	28007.1577092272000
2.48	28040.0789039339000
2.5	28068.6106060118000
2.52	28094.9475617768000
2.54	28121.2845175403000
2.56	28145.4267269910000
2.58	28167.3741901288000
2.6	28187.1269069522000
2.62	28206.8796237756000
2.64	28226.6323405990000
2.68	28259.5535353042000
2.7	28274.9167595003000
2.72	28290.2799836965000
2.74	28303.4484615782000
2.76	28316.6169394600000
2.78	28327.5906710289000
2.8	28340.7591489106000
2.82	28351.7328804795000
2.84	28362.7066120484000
2.86	28371.4855973029000
2.88	28380.2645825574000
3	28428.5490014603000
3.1	28457.0807035382000
3.2	28481.2229129888000
3.3	28500.9756298123000
3.4	28516.3388540084000
3.5	28527.3125855773000
3.6	28538.2863171447000
3.7	28544.8705560863000
3.8	28551.4547950280000
3.9	28555.8442876552000
4	28560.2337802825000
4.1	28564.6232729097000
4.2	28566.8180192226000
4.3	28569.0127655370000
4.4	28569.0127655370000
4.5	28571.2075118514000
4.6	28571.2075118514000
4.7	28573.4022581642000
4.8	28573.4022581642000
4.9	28573.4022581642000
5	28575.5970044786000
end

poten A (values not done)
name 'A2Delta'
lambda 2
mult   2
type   EMO
values
V0           2.32424260584506e+04   fit    (  2.32424323974583e+04)  
RE           1.10336914328174e+00   fit    (  1.10336941212937e+00)  
AE           3.93580000000000E+04
RREF        -1.00000000000000E+00
PL           4.00000000000000E+00
PR           4.00000000000000E+00
NL           2.00000000000000E+00
NR           6.00000000000000E+00
B0           2.69596347575421e+00   fit    (  2.69595889294915e+00)  
B1           4.10428778873498e-01   fit    (  4.10426441498421e-01)  
B2           2.93370457705920e-01   fit    (  2.93617854861685e-01)  
B3           2.63954677975698e-02   fit    (  2.44321657869355e-02)  
B4           8.59766647633496e-01   fit    (  8.63261418657842e-01)  
B5          -2.77997584975684e-01   fit    ( -2.79748076373621e-01)  
B6           0.0000000000000000       (  2.63554707517027e+00)
end

abinitio poten A
name 'A2Delta'
lambda 2
mult   2
type grid
fit_factor 1e-5
values
0.5	225830.6166952980000
0.52	200832.4561821640000
0.54	178768.6714904570000
0.56	159283.7137173580000
0.58	142065.9288863190000
0.6	126847.5579470670000
0.62	113398.1525366650000
0.64	101511.4065016220000
0.66	91011.7401368427000
0.68	81743.3264540546000
0.7	73565.7016891778000
0.72	66360.3495412751000
0.74	60019.7274409734000
0.76	54451.6560430957000
0.78	49572.7349877227000
0.8	45308.3429001881000
0.82	41592.6373910800000
0.84	38366.3603099297000
0.85	36920.0224891955000
0.86	35579.0324915200000
0.87	34334.6113316487000
0.88	33184.5642632656000
0.89	32120.1123011162000
0.9	31139.0606988892000
0.91	30237.0199639558000
0.92	29409.6006036873000
0.93	28652.4131254578000
0.94	27961.0680366403000
0.95	27331.1758446057000
0.965	26497.1722453971000
0.97	26246.9711656345000
0.98	25786.0744397545000
0.99	25375.6568790919000
1	25011.3289910161000
1.01	24693.0907755288000
1.02	24416.5527400011000
1.03	24183.9096307491000
1.04	23990.7719551423000
1.055	23720.8181585563000
1.06	23593.5228723614000
1.07	23466.2275861664000
1.085	23345.5165389116000
1.09	23319.1795831481000
1.1	23286.2583884414000
1.11	23277.4794031869000
1.12	23290.6478810687000
1.13	23325.7638220882000
1.14	23380.6324799312000
1.15	23455.2538545975000
1.16	23545.2384534601000
1.17	23650.5862765172000
1.18	23773.4920700849000
1.19	23909.5663415343000
1.2	24058.8090908670000
1.21	24219.0255717671000
1.22	24390.2157842376000
1.23	24572.3797282755000
1.24	24763.3226575679000
1.25	24965.2393184292000
1.26	25171.5454719177000
1.27	25386.6306106608000
1.28	25608.2999883455000
1.29	25834.3588586574000
1.3	26064.8072215966000
1.32	26541.0671716711000
1.34	27028.3008533145000
1.36	27524.3135202125000
1.38	28024.7156797377000
1.4	28527.3125855773000
1.42	29025.5199987881000
1.44	29519.3379193732000
1.46	30006.5716010151000
1.48	30485.0262974040000
1.5	30950.3125159097000
1.52	31402.4302565335000
1.54	31839.1847729613000
1.56	32262.7708115073000
1.58	32668.7988795442000
1.6	33055.0742307563000
1.62	33425.9863577721000
1.64	33779.3405142806000
1.66	34112.9419539640000
1.68	34428.9854231369000
1.7	34725.2761754880000
1.72	35006.2037036429000
1.74	35269.5732612872000
1.76	35515.3848484226000
1.78	35743.6384650489000
1.8	35958.7236037920000
1.82	36158.4455183388000
1.84	36342.8042086911000
1.86	36513.9944211601000
1.88	36674.2109020602000
1.9	36821.2589050785000
1.92	36957.3331765295000
1.94	37082.4337164100000
1.96	37196.5605247232000
1.98	37304.1030940947000
2	37402.8666782117000
2.02	37492.8512770743000
2.04	37576.2516369951000
2.06	37650.8730116615000
2.08	37721.1048936990000
2.1	37786.9472831109000
2.12	37846.2054335811000
2.14	37901.0740914241000
2.16	37951.5532566382000
2.18	37997.6429292267000
2.2	38041.5378555008000
2.22	38081.0432891476000
2.24	38118.3539764800000
2.26	38151.2751711867000
2.28	38182.0016195774000
2.3	38212.7280679697000
2.32	38239.0650237348000
2.34	38263.2072331855000
2.36	38287.3494426361000
2.38	38309.2969057724000
2.4	38329.0496225958000
2.42	38346.6075931063000
2.44	38364.1655636153000
2.46	38381.7235341259000
2.48	38397.0867583220000
2.5	38410.2552362037000
2.52	38423.4237140855000
2.54	38436.5921919688000
2.56	38449.7606698506000
2.58	38460.7344014195000
2.6	38471.7081329868000
2.62	38480.4871182429000
2.64	38491.4608498102000
2.68	38509.0188203208000
2.7	38515.6030592625000
2.72	38524.3820445170000
2.74	38530.9662834570000
2.76	38539.7452687131000
2.78	38546.3295076532000
2.8	38552.9137465949000
2.82	38559.4979855365000
2.84	38563.8874781638000
2.86	38570.4717171039000
2.88	38574.8612097311000
3	38605.5876581234000
3.1	38625.3403749468000
3.2	38640.7035991430000
3.3	38653.8720770247000
3.4	38667.0405549080000
3.5	38675.8195401625000
3.6	38684.5985254170000
3.7	38691.1827643587000
3.8	38697.7670032988000
3.9	38699.9617496132000
4	38702.1564959276000
4.1	38704.3512422404000
4.2	38706.5459885548000
4.3	38708.7407348677000
4.4	38708.7407348677000
4.5	38710.9354811821000
4.6	38713.1302274949000
4.7	38713.1302274949000
4.8	38715.3249738093000
4.9	38715.3249738093000
5	38717.5197201222000
end

poten B
name "B2Sigma-"
symmetry -
lambda 0
mult   2
type  coupled-pec
sub-types EMO repulsive_exp EMO
Nparameters 14  12 13
values
VE           2.62569549836966e+04   fit    (  2.62569247288930e+04)  
RE           1.19260539825053e+00   fit    (  1.19261610690997e+00)  
AE           8.12503622793717E+04
RREF        -1.00000000000000E+00
PL           6.00000000000000E+00
PR           6.00000000000000E+00
NL           2.00000000000000E+00
NR           5.00000000000000E+00
B0           1.10632565781086e+00   fit    (  1.10703693458127e+00)  
B1           2.33481901357362e-01   fit    (  2.56313274813503e-01)  
B2           6.66350178827612e-01   fit    (  6.98801585780643e-01)  
B3          -4.67748142421926e+00   fit    ( -4.89604483097033e+00)  
B4           3.77635987854816e+00   fit    (  3.96967803976396e+00)  
B5           0.00000000000000E+00
V0           2.93740000000000E+04
A            2.29659415627016E+05
DELTA        3.03481499953155E-01
GAMMA        5.50000000000000E+00
B1           0.00000000000000E+00
B2           0.00000000000000E+00
B3           0.00000000000000E+00
B4           0.00000000000000E+00
B5           0.00000000000000E+00
B6          -6.95400000000000E+04
B7           0.00000000000000E+00
B8           0.00000000000000E+00
V0           5.14828525890236e+03   fit    (  5.21296274898178e+03)  
RE           2.05000000000000E+00
AE           0.00000000000000E+00
RREF        -1.00000000000000E+00
PB           5.00000000000000E+00
PU           5.00000000000000E+00
NSPHI        4.00000000000000E+00
NLPHI        4.00000000000000E+00
B0           5.95475983454518e-01   fit    (  5.98642069139703e-01)  
B1           0.00000000000000E+00
B2           0.00000000000000E+00
B3           0.00000000000000E+00
B4           0.00000000000000E+00
COMPON       1.00000000000000E+00
end



abinitio poten B
name 'B2sigma-'
symmetry -
lambda 0
mult   2
type grid
fit_factor 1e-4
Weighting PS1997 1e-3  18000.0
values
    0.40           421268.83337067
    0.50           234723.80697336
    0.60           135174.82410916
    0.70            81224.21548100
    0.75            64407.09256326
    0.80            52154.76324525
    0.85            43329.36569012
    0.90            37080.14818955
    0.95            32767.73724742
    1.00            29906.29723549
    1.05            28122.45132663
    1.10            27126.56543407
    1.15            26689.39172109
    1.20            26653.41763427
    1.25            26880.38732430
    1.40            28152.33499244
    1.50            29057.84562129
    1.60            29696.58483572
    1.70            30060.04579900
    1.75            30153.82291949
    1.80            30201.19432393
    1.90            30193.74754968
    2.00            30103.44690735
    2.10            29978.41440461
    2.20            29848.25716922
    2.30            29728.92881214
    2.40            29627.45910582
    2.50            29545.52044695
    2.60            29481.94961997
    2.70            29434.30826174
    2.80            29399.99559787
    2.90            29375.80071451
    3.00            29359.58373399
    3.10            29349.33426871
    3.20            29343.43479062
    3.30            29340.62332059
    3.40            29339.93197550
    3.50            29340.55308871
    3.60            29342.12013758
    3.80            29346.40208763
    4.00            29350.96496522
    4.50            29359.72639251
    5.00            29364.71066138
    6.00            29368.78411054
    7.00            29370.00000000
end



poten C
name "C2Sigma+"
symmetry +
lambda 0
mult   2
type  coupled-pec
sub-types EMO repulsive EMO
Nparameters 13  12 13
values
VE           3.17975795064336e+04   fit    (  3.17975825540191e+04)  
RE           1.11429518496661e+00   fit    (  1.11428664855653e+00)  
AE           54094.7267957448
RREF        -1.00000000000000E+00
PL           6.50000000000000E+00
PR           6.50000000000000E+00
NL           1.00000000000000E+00
NR           4.00000000000000E+00
B0           2.32235613683765e+00   fit    (  2.32236019119126e+00)  
B1           6.22397650489763e-02   fit    (  6.22542574482303e-02)  
B2           7.10843697741136e-02   fit    (  7.10503015757429e-02)  
B3           0.00000000000000E+00
B4           0.00000000000000E+00
NREP         1.10000000000000E+01
V0           3.82756452385775e+04   fit    (  3.82756414131856e+04)  
B1           0.00000000000000E+00
B2           0.00000000000000E+00
B3           2.86011810314666E+04
B4           0.00000000000000E+00
B5           0.00000000000000E+00
B6           1.40424973349335E+04
B7           0.00000000000000E+00
B8           0.00000000000000E+00
B9           0.00000000000000E+00
B10          0.00000000000000E+00
V0           3.75412598510978e+03      (  3.75347258453660e+03)
RE           1.64546933933648E+00
AE           0.00000000000000E+00
RREF        -1.00000000000000E+00
PB           5.00000000000000E+00
PU           5.00000000000000E+00
NSPHI        4.00000000000000E+00
NLPHI        4.00000000000000E+00
B0           1.30936007603204e+00      (  1.30931988484009e+00)
B1           0.00000000000000E+00
B2           0.00000000000000E+00
B3           0.00000000000000E+00
B4           0.00000000000000E+00
COMPON       1.00000000000000E+00
end


abinitio poten C
name 'C2Sigma+'
symmetry +
lambda 0
mult   2
type grid
fit_factor 1e-8
values
	0.50000000000000000000	235782.56659590200000000000
	0.50226226226226200000	232796.62037204800000000000
	0.50452452452452400000	229847.76495663500000000000
	0.50678678678678600000	226935.57261054100000000000
	0.50904904904904900000	224059.62037093100000000000
	0.51131131131131100000	221219.48999871700000000000
	0.51357357357357300000	218414.76792660700000000000
	0.51583583583583500000	215645.04520770300000000000
	0.51809809809809800000	212909.91746467100000000000
	0.52036036036036000000	210208.98483946800000000000
	0.52262262262262200000	207541.85194361200000000000
	0.52488488488488400000	204908.12780899300000000000
	0.52714714714714700000	202307.42583923100000000000
	0.52940940940940900000	199739.36376155900000000000
	0.53167167167167100000	197203.56357922800000000000
	0.53393393393393400000	194699.65152444100000000000
	0.53619619619619600000	192227.25801179200000000000
	0.53845845845845800000	189786.01759222000000000000
	0.54072072072072000000	187375.56890746600000000000
	0.54298298298298300000	184995.55464501900000000000
	0.54524524524524500000	182645.62149356800000000000
	0.54750750750750700000	180325.42009892500000000000
	0.54976976976976900000	178034.60502044600000000000
	0.55203203203203200000	175772.83468791500000000000
	0.55429429429429400000	173539.77135890600000000000
	0.55655655655655600000	171335.08107660700000000000
	0.55881881881881800000	169158.43362810900000000000
	0.56108108108108100000	167009.50250314900000000000
	0.56334334334334300000	164887.96485330000000000000
	0.56560560560560500000	162793.50145161700000000000
	0.56786786786786700000	160725.79665271000000000000
	0.57013013013013000000	158684.53835326800000000000
	0.57239239239239200000	156669.41795300300000000000
	0.57465465465465400000	154680.13031603000000000000
	0.57691691691691600000	152716.37373265900000000000
	0.57917917917917900000	150777.84988161400000000000
	0.58144144144144100000	148864.26379266300000000000
	0.58370370370370300000	146975.32380965200000000000
	0.58596596596596600000	145110.74155394800000000000
	0.58822822822822800000	143270.23188827600000000000
	0.59049049049049000000	141453.51288096400000000000
	0.59275275275275200000	139660.30577056300000000000
	0.59501501501501500000	137890.33493086200000000000
	0.59727727727727700000	136143.32783628900000000000
	0.59953953953953900000	134419.01502768300000000000
	0.60180180180180100000	132717.13007844400000000000
	0.60406406406406400000	131037.40956105600000000000
	0.60632632632632600000	129379.59301396800000000000
	0.60858858858858800000	127743.42290884700000000000
	0.61085085085085000000	126128.64461818300000000000
	0.61311311311311300000	124535.00638325100000000000
	0.61537537537537500000	122962.25928241900000000000
	0.61763763763763700000	121410.15719981300000000000
	0.61989989989989900000	119878.45679431300000000000
	0.62216216216216200000	118366.91746889500000000000
	0.62442442442442400000	116875.30134030700000000000
	0.62668668668668600000	115403.37320907800000000000
	0.62894894894894800000	113950.90052985400000000000
	0.63121121121121100000	112517.65338205600000000000
	0.63347347347347300000	111103.40444086500000000000
	0.63573573573573500000	109707.92894852100000000000
	0.63799799799799800000	108331.00468593700000000000
	0.64026026026026000000	106972.41194462200000000000
	0.64252252252252200000	105631.93349891200000000000
	0.64478478478478400000	104309.35457851100000000000
	0.64704704704704700000	103004.46284132300000000000
	0.64930930930930900000	101717.04834658600000000000
	0.65157157157157100000	100446.90352830300000000000
	0.65383383383383300000	99193.82316895760000000000
	0.65609609609609600000	97957.60437352560000000000
	0.65835835835835800000	96738.04654376250000000000
	0.66062062062062000000	95534.95135277860000000000
	0.66288288288288200000	94348.12271989060000000000
	0.66514514514514500000	93177.36678574890000000000
	0.66740740740740700000	92022.49188773670000000000
	0.66966966966966900000	90883.30853564010000000000
	0.67193193193193100000	89759.62938758330000000000
	0.67419419419419400000	88651.26922622800000000000
	0.67645645645645600000	87558.04493523390000000000
	0.67871871871871800000	86479.77547597680000000000
	0.68098098098098100000	85416.28186452170000000000
	0.68324324324324300000	84367.38714884870000000000
	0.68550550550550500000	83332.91638632790000000000
	0.68776776776776700000	82312.69662144220000000000
	0.69003003003003000000	81306.55686375280000000000
	0.69229229229229200000	80314.32806610760000000000
	0.69455455455455400000	79335.84310308800000000000
	0.69681681681681600000	78370.93674969120000000000
	0.69907907907907900000	77419.44566024810000000000
	0.70134134134134100000	76481.20834757020000000000
	0.70360360360360300000	75556.06516232710000000000
	0.70586586586586500000	74643.85827264800000000000
	0.70812812812812800000	73744.43164394950000000000
	0.71039039039039000000	72857.63101898240000000000
	0.71265265265265200000	71983.30389809840000000000
	0.71491491491491400000	71121.29951973320000000000
	0.71717717717717700000	70271.46884110340000000000
	0.71943943943943900000	69433.66451911530000000000
	0.72170170170170100000	68607.74089148340000000000
	0.72396396396396300000	67793.55395805560000000000
	0.72622622622622600000	66990.96136234350000000000
	0.72848848848848800000	66199.82237325560000000000
	0.73075075075075000000	65419.99786703060000000000
	0.73301301301301300000	64651.35030936930000000000
	0.73527527527527500000	63893.74373776230000000000
	0.73753753753753700000	63147.04374401170000000000
	0.73979979979979900000	62411.11745694510000000000
	0.74206206206206200000	61685.83352531910000000000
	0.74432432432432400000	60971.06210090980000000000
	0.74658658658658600000	60266.67482179020000000000
	0.74884884884884800000	59572.54479579060000000000
	0.75111111111111100000	58888.54658414010000000000
	0.75337337337337300000	58214.55618528870000000000
	0.75563563563563500000	57550.45101890690000000000
	0.75789789789789700000	56896.10991005970000000000
	0.76016016016016000000	56251.41307355690000000000
	0.76242242242242200000	55616.24209847270000000000
	0.76468468468468400000	54990.47993283740000000000
	0.76694694694694700000	54374.01086849600000000000
	0.76920920920920900000	53766.72052613390000000000
	0.77147147147147100000	53168.49584046650000000000
	0.77373373373373300000	52579.22504559220000000000
	0.77599599599599500000	51998.79766050630000000000
	0.77825825825825800000	51427.10447477320000000000
	0.78052052052052000000	50864.03753435730000000000
	0.78278278278278200000	50309.49012760900000000000
	0.78504504504504500000	49763.35677140490000000000
	0.78730730730730700000	49225.53319744000000000000
	0.78956956956956900000	48695.91633867170000000000
	0.79183183183183100000	48174.40431591130000000000
	0.79409409409409400000	47660.89642456440000000000
	0.79635635635635600000	47155.29312151630000000000
	0.79861861861861800000	46657.49601216140000000000
	0.80088088088088000000	46167.40783757650000000000
	0.80314314314314300000	45684.93246183370000000000
	0.80540540540540500000	45209.97485945400000000000
	0.80766766766766700000	44742.44110299820000000000
	0.80992992992992900000	44282.23835079500000000000
	0.81219219219219200000	43829.27483480320000000000
	0.81445445445445400000	43383.45984860870000000000
	0.81671671671671600000	42944.70373555240000000000
	0.81897897897897900000	42512.91787698980000000000
	0.82124124124124100000	42088.01468067880000000000
	0.82350350350350300000	41669.90756929640000000000
	0.82576576576576500000	41258.51096908090000000000
	0.82802802802802800000	40853.74029860000000000000
	0.83029029029029000000	40455.51195764160000000000
	0.83255255255255200000	40063.74331622790000000000
	0.83481481481481400000	39678.35270374990000000000
	0.83707707707707700000	39299.25939822170000000000
	0.83933933933933900000	38926.38361565320000000000
	0.84160160160160100000	38559.64649954010000000000
	0.84386386386386300000	38198.97011046900000000000
	0.84612612612612600000	37844.27741583800000000000
	0.84838838838838800000	37495.49227968990000000000
	0.85065065065065000000	37152.53945265740000000000
	0.85291291291291200000	36815.34456201940000000000
	0.85517517517517500000	36483.83410186720000000000
	0.85743743743743700000	36157.93542337830000000000
	0.85969969969969900000	35837.57672519780000000000
	0.86196196196196200000	35522.68704392630000000000
	0.86422422422422400000	35213.19624471200000000000
	0.86648648648648600000	34909.03501194690000000000
	0.86874874874874800000	34610.13484006550000000000
	0.87101101101101100000	34316.42802444490000000000
	0.87327327327327300000	34027.84765240590000000000
	0.87553553553553500000	33744.32759431210000000000
	0.87779779779779700000	33465.80249476850000000000
	0.88006006006006000000	33192.20776391660000000000
	0.90000000000000000000	30984.62994500000000000000
	0.91000000000000000000	30059.13395600000000000000
	0.92000000000000000000	29207.63603400000000000000
	0.93000000000000000000	28426.13515600000000000000
	0.94000000000000000000	27710.71809000000000000000
	0.95000000000000000000	27057.77228300000000000000
	0.96000000000000000000	26463.84978800000000000000
	0.97000000000000000000	25925.46754400000000000000
	0.98000000000000000000	25439.98526900000000000000
	0.99000000000000000000	24860.36813100000000000000
	1.00000000000000000000	24361.67348400000000000000
	1.01000000000000000000	23995.45372500000000000000
	1.02000000000000000000	23673.68635700000000000000
	1.03000000000000000000	23392.03017300000000000000
	1.04000000000000000000	23149.56776920000000000000
	1.05000000000000000000	22943.32306860000000000000
	1.06000000000000000000	22771.14741500000000000000
	1.07000000000000000000	22630.97555220000000000000
	1.08000000000000000000	22520.83220840000000000000
	1.09000000000000000000	22438.84087564000000000000
	1.10000000000000000000	22383.21722506000000000000
	1.11000000000000000000	22352.27569153400000000000
	1.12000000000000000000	22344.40752600000000000000
	1.13000000000000000000	22358.10054825000000000000
	1.14000000000000000000	22391.91061521000000000000
	1.15000000000000000000	22444.46820520000000000000
	1.16000000000000000000	22514.47402840000000000000
	1.17000000000000000000	22600.68585830000000000000
	1.18000000000000000000	22701.92292150000000000000
	1.19000000000000000000	22817.05931310000000000000
	1.20000000000000000000	22945.01521800000000000000
	1.21000000000000000000	23084.76788420000000000000
	1.22000000000000000000	23235.32748140000000000000
	1.23000000000000000000	23395.75465800000000000000
	1.24000000000000000000	23565.14298400000000000000
	1.25000000000000000000	23742.62992300000000000000
	1.26000000000000000000	23927.37927800000000000000
	1.27000000000000000000	24118.60094100000000000000
	1.28000000000000000000	24315.52455400000000000000
	1.29000000000000000000	24517.42146200000000000000
	1.30000000000000000000	24723.58715100000000000000
	1.31000000000000000000	24933.35003000000000000000
	1.32000000000000000000	25146.06045400000000000000
	1.33000000000000000000	25361.09950300000000000000
	1.34000000000000000000	25577.87020700000000000000
	1.35000000000000000000	25795.79973700000000000000
	1.36000000000000000000	26014.33501600000000000000
	1.37000000000000000000	26232.93833400000000000000
	1.38000000000000000000	26451.09611700000000000000
	1.39000000000000000000	26668.30357600000000000000
	1.40000000000000000000	26884.07128000000000000000
	1.41000000000000000000	27097.92736100000000000000
	1.42000000000000000000	27309.40872700000000000000
	1.43000000000000000000	27518.06106400000000000000
	1.44000000000000000000	27723.44322900000000000000
	1.45000000000000000000	27925.12066300000000000000
	1.46000000000000000000	28122.67416800000000000000
	1.47000000000000000000	28315.68454800000000000000
	1.48000000000000000000	28503.75236000000000000000
	1.49000000000000000000	28686.48035400000000000000
	1.50000000000000000000	28863.48883900000000000000
	1.51000000000000000000	29034.40031800000000000000
	1.52000000000000000000	29198.86802300000000000000
	1.53000000000000000000	29356.54957200000000000000
	1.54000000000000000000	29507.12892200000000000000
	1.55000000000000000000	29650.31417100000000000000
	1.56000000000000000000	29785.83756100000000000000
	1.57000000000000000000	29913.47303300000000000000
	1.58000000000000000000	30033.02525400000000000000
	1.59000000000000000000	30144.34278700000000000000
	1.60000000000000000000	30247.32467400000000000000
	1.61000000000000000000	30341.91824000000000000000
	1.62000000000000000000	30428.13226500000000000000
	1.63000000000000000000	30506.01722700000000000000
	1.64000000000000000000	30575.69383800000000000000
	1.65000000000000000000	30637.33328800000000000000
	1.66000000000000000000	30691.16163700000000000000
	1.67000000000000000000	30737.45542100000000000000
	1.68000000000000000000	30776.52848900000000000000
	1.69000000000000000000	30808.73858600000000000000
	1.70000000000000000000	30834.46540200000000000000
	1.71000000000000000000	30854.11496600000000000000
	1.72000000000000000000	30868.10866900000000000000
	1.73000000000000000000	30876.87009600000000000000
	1.74000000000000000000	30880.82283400000000000000
	1.75000000000000000000	30880.38827400000000000000
	1.76000000000000000000	30875.97463900000000000000
	1.77000000000000000000	30867.97259400000000000000
	1.78000000000000000000	30856.75963500000000000000
	1.79000000000000000000	30842.68911700000000000000
	1.80000000000000000000	30826.09244500000000000000
	1.81000000000000000000	30807.28127500000000000000
	1.82000000000000000000	30786.54311700000000000000
	1.83000000000000000000	30764.13914600000000000000
	1.84000000000000000000	30740.31298000000000000000
	1.85000000000000000000	30715.28628800000000000000
	1.86000000000000000000	30689.25879200000000000000
	1.87000000000000000000	30662.41046000000000000000
	1.88000000000000000000	30634.90589900000000000000
	1.89000000000000000000	30606.89215700000000000000
	1.90000000000000000000	30578.50091900000000000000
	1.92000000000000000000	30521.03807100000000000000
	1.94000000000000000000	30463.30746400000000000000
	1.96000000000000000000	30405.93021100000000000000
	1.98000000000000000000	30349.38696200000000000000
	2.00000000000000000000	30294.06618600000000000000
	2.02000000000000000000	30240.28173300000000000000
	2.04000000000000000000	30192.73035900000000000000
	2.06000000000000000000	30142.46847400000000000000
	2.08000000000000000000	30094.31354500000000000000
	2.10000000000000000000	30048.32922000000000000000
	2.12000000000000000000	30004.52427900000000000000
	2.14000000000000000000	29962.86360400000000000000
	2.16000000000000000000	29923.30330200000000000000
	2.18000000000000000000	29885.79069800000000000000
	2.20000000000000000000	29850.26433900000000000000
	2.24000000000000000000	29784.86967800000000000000
	2.26000000000000000000	29754.67874800000000000000
	2.28000000000000000000	29725.71907000000000000000
	2.30000000000000000000	29697.82823400000000000000
	2.32000000000000000000	29671.33106200000000000000
	2.34000000000000000000	29646.47336500000000000000
	2.36000000000000000000	29623.19588600000000000000
	2.38000000000000000000	29601.34499100000000000000
	2.40000000000000000000	29580.79119200000000000000
	2.42000000000000000000	29561.43572400000000000000
	2.44000000000000000000	29543.19738200000000000000
	2.46000000000000000000	29526.01032400000000000000
	2.48000000000000000000	29526.63802100000000000000
	2.50000000000000000000	29511.65448800000000000000
	2.52000000000000000000	29497.57958000000000000000
	2.54000000000000000000	29484.38257100000000000000
	2.56000000000000000000	29472.00859100000000000000
	2.58000000000000000000	29461.32676100000000000000
	2.60000000000000000000	29449.74727900000000000000
	2.62000000000000000000	29438.80427400000000000000
	2.64000000000000000000	29428.46921400000000000000
	2.68000000000000000000	29409.49563200000000000000
	2.70000000000000000000	29400.80004700000000000000
	2.72000000000000000000	29392.59828000000000000000
	2.74000000000000000000	29384.86399400000000000000
	2.76000000000000000000	29374.00000000000000000000
end



spin-orbit-x X X
name "<X2Pi|LSZ|X2Pi>" (1.3|LSZ|1.2, inconsistency fixed, smooth,sign=good)
spin   0.5 0.5
lambda  1  1
sigma  0.5 0.5 (correct, but do you do lsz between the same sigma states?)
units  cm-1
factor    i   (0, 1 or i)
<x|Lz|y>  -i -i
type polynom_decay_24
morphing
values
RE           1.119800
BETA         8.00000000000000E-01
GAMMA        2.00000000000000E-02
P            6.00000000000000E+00
B0           9.86290921012117e-01   fit    (  9.86244582011839e-01)  
B1           2.78570269925449e+00   fit    (  2.78725837974710e+00)  
B2           0.00000000000000000000        (  1.63059230494949e+00)
B3           0.00                  (2.14984585324180e+01)    (  2.02938144711032e+01)
BINF         1.0
end



abinitio spin-orbit-x  X X
name "<X2Pi|LSZ|X2Pi>" (1.3|LSZ|1.2, inconsistency fixed, smooth,sign=good)
spin   0.5 0.5
lambda  1  1
sigma  0.5 0.5 (correct, but do you do lsz between the same sigma states?)
units  cm-1
factor    i   (0, 1 or i)
<x|Lz|y>  -i -i
type  grid
fit_factor 1e-5
values
0.6	-15.158676917851
0.61	-15.087488396625
0.62	-15.020060579414
0.63	-14.956762798517
0.64	-14.897758188729
0.65	-14.843026143997
0.66	-14.792405796793
0.665	-14.768560731457
0.675	-14.723615969810
0.68	-14.702438239765
0.69	-14.662478520634
0.7	-14.625465497329
0.71	-14.591130716645
0.72	-14.559240765972
0.73	-14.529575804453
0.74	-14.502019596095
0.75	-14.476415080957
0.76	-14.452651703732
0.77	-14.430619736615
0.78	-14.410279575253
0.79	-14.391543550041
0.8	-14.374351062505
0.81	-14.358647962924
0.82	-14.344382205749
0.83	-14.331504514737
0.84	-14.319968711731
0.85	-14.309728623177
0.86	-14.300739090609
0.87	-14.292956298679
0.88	-14.286336593114
0.89	-14.280816136427
0.9	-14.276393591165
0.91	-14.273009157327
0.92	-14.270621646789
0.93	-14.269180498930
0.94	-14.268678789309
0.95	-14.269067195652
0.96	-14.270314130677
0.97	-14.272390491259
0.98	-14.275395582436
0.99	-14.279045962719
1.	-14.283444798837
1.01	-14.288566756360
1.02	-14.294390218298
1.03	-14.300894331129
1.04	-14.308063537840
1.05	-14.315878010848
1.06	-14.324320611679
1.07	-14.333374060867
1.08	-14.343021280683
1.09	-14.353244678588
1.1	-14.364027492145
1.11	-14.375352821210
1.12	-14.387204076256
1.13	-14.399564875587
1.14	-14.412418756689
1.15	-14.425750413679
1.16	-14.439543459209
1.17	-14.453784931962
1.18	-14.468414831289
1.19	-14.483496176010
1.2	-14.498992453889
1.21	-14.514909890345
1.22	-14.531011711516
1.23	-14.548032380946
1.24	-14.583256997784
1.25	-14.621224791154
1.26	-14.638490688663
1.27	-14.655820071263
1.28	-14.673146986180
1.29	-14.690594584115
1.3	-14.708197394829
1.32	-14.743802801047
1.34	-14.779400215218
1.36	-14.815002957420
1.38	-14.844114348989
1.4	-14.875366760652
1.42	-14.908153944524
1.44	-14.941935747911
1.46	-15.032009121614
1.48	-15.062682190916
1.5	-15.093430947036
1.52	-15.124000698122
1.54	-15.154184173742
1.56	-15.183623418352
1.58	-15.212133454951
1.6	-15.241993118515
1.62	-15.267739198164
1.64	-15.292257702419
1.66	-15.315125286681
1.68	-15.336187899246
1.7	-15.360020923804
1.72	-15.376789286209
1.74	-15.391342674986
1.76	-15.403533498632
1.78	-15.413376819881
1.8	-15.420509815382
1.82	-15.424915684917
1.84	-15.431284929995
1.86	-15.429727880160
1.88	-15.425131952740
1.9	-15.417195063336
1.92	-15.405889139940
1.94	-15.391104586965
1.96	-15.372740766638
1.98	-15.350706137141
2	-15.324932535511
2.02	-15.295357042529
2.04	-15.262476078114
2.06	-15.225203677521
2.08	-15.184060038521
2.1	-15.139062898825
2.12	-15.090249302482
2.14	-15.037758236629
2.16	-14.981783864082
2.18	-14.921929347394
2.2	-14.858585832715
2.22	-14.791883332457
2.24	-14.721953003162
2.26	-14.648957448412
2.28	-14.573065820245
2.3	-14.494554431503
2.32	-14.413439563550
2.34	-14.330023471526
2.36	-14.244540943495
2.38	-14.157491551231
2.4	-14.068546122232
2.42	-13.978241372024
2.44	-13.886829209750
2.46	-13.794526641164
2.48	-13.701666099570
2.5	-13.608460554181
2.52	-13.515159394767
2.54	-13.422005146174
2.56	-13.329236203687
2.58	-13.237082339370
2.6	-13.145398079464
2.62	-13.055095886554
2.64	-12.966008309375
2.68	-12.792151298072
2.7	-12.707679228641
2.72	-12.625015737800
2.74	-12.544268583367
2.76	-12.465529454363
2.78	-12.388874598642
2.8	-12.314365459334
2.82	-12.242048932925
2.84	-12.171959655367
2.86	-12.104118408835
2.88	-12.038535930817
3	-11.691830230511
3.1	-11.460554786414
3.2	-11.274996137175
3.3	-11.127832649467
end



spin-orbit-x X B (values might be done?)
name "< X2Pi |LSX| B2sigma- >" (1.2|LSX|2.4+1.4, sign=good, smooth)
multiplicity    2   2
sigma   -0.5   0.5
lambda  1.0   0.0
factor  1.0 i   (1 or i)
<X|LZ|Y>  -I  0
type polynom_decay_24
morphing
values
RE           1.119800
BETA         8.00000000000000E-01
GAMMA        2.00000000000000E-02
P            6.00000000000000E+00
B0            1.00                   (-5.40806540609812e-01)     ( -4.78458061661968e-01)
B1           0.00000000000000E+00
B2           0.00000000000000E+00
B3           0.00000000000000E+00
BINF         1.0
end




(sy: chanched signed from abinitio to improve the fi)

abinitio spin-orbit-x X B
name "< X2Pi |LSX| B2sigma- >" (1.2|LSX|2.4+1.4, sign=good, smooth)
multiplicity    2   2
sigma   -0.5   0.5
lambda  1.0   0.0
factor  1.0 i   (1 or i)
<X|LZ|Y>  -I  0
type grid
fit_factor 1e-5
values
0.6	5.790588374416
0.61	5.752046633396
0.62	5.715465327066
0.63	5.680789538197
0.64	5.647914767430
0.65	5.616681052586
0.66	5.586905089005
0.67	5.558389993621
0.68	5.530953024940
0.69	5.504437974032
0.7	5.478735500471
0.71	5.453497188252
0.72	5.397718212052
0.73	5.374278585106
0.74	5.351394928911
0.75	5.328970106190
0.76	5.306982778880
0.77	5.285428098620
0.78	5.264299010944
0.79	5.243570269394
0.8	5.223240927035
0.81	5.203301385856
0.82	5.183742283443
0.83	5.164548795694
0.84	5.145711438283
0.85	5.127210067794
0.86	5.109032408896
0.87	5.091165442521
0.88	5.073596737346
0.89	5.056315570059
0.9	5.039313000673
0.91	5.022581443354
0.92	5.006122531977
0.93	4.989912690344
0.94	4.973969521321
0.95	4.958284469050
0.96	4.942855136685
0.97	4.927682179319
0.98	4.912762751534
0.99	4.898098367214
1	4.883659605569
1.01	4.869506594625
1.02	4.855576050432
1.03	4.841936652509
1.04	4.828557387682
1.05	4.815459890644
1.06	4.802647950352
1.07	4.790127202850
1.08	4.777905837650
1.09	4.765989384528
1.1	4.754382869942
1.11	4.743222773033
1.12	4.732263081689
1.13	4.721627939997
1.14	4.711313994871
1.15	4.701314269011
1.16	4.691601536007
1.17	4.682094370228
1.18	4.672705796786
1.19	4.662635571617
1.2	4.651538817457
1.21	4.641344825228
1.22	4.633931741847
1.23	4.627710497326
1.24	4.617139871308
1.25	4.627270039393
1.26	4.623063135088
1.27	4.619424303095
1.28	4.616356325365
1.29	4.613860024173
1.3	4.611884076288
1.32	4.610176939091
1.34	4.611342717955
1.36	4.589038977080
1.38	4.594907485751
1.4	4.602671414172
1.42	4.612418322467
1.44	4.624297957103
1.46	4.654612523213
1.48	4.670077129926
1.5	4.687732609884
1.52	4.707605876944
1.54	4.729702853944
1.56	4.754033286370
1.58	4.780626052232
1.6	4.810698585046
1.62	4.841753494626
1.64	4.875110226510
1.66	4.910860871181
1.68	4.948885780284
1.7	4.991609073931
1.72	5.034205523316
1.74	5.079187313558
1.76	5.126565422167
1.78	5.176356438381
1.8	5.228552674706
1.82	5.283156263463
1.84	5.341069377898
1.86	5.400397933860
1.88	5.462064235512
1.9	5.526086303164
1.92	5.592399652861
1.94	5.660955458832
1.96	5.731695510640
1.98	5.804551653134
2	5.879445389627
2.02	5.956287522043
2.04	6.034977521633
2.06	6.115410486545
2.08	6.197416078784
2.1	6.280951712993
2.12	6.365831696159
2.14	6.451897617283
2.16	6.538783285833
2.18	6.626778160038
2.2	6.715469030838
2.22	6.804661834082
2.24	6.894204027002
2.26	6.983896570341
2.28	7.073553158272
2.3	7.162987788749
2.32	7.252016254503
2.34	7.340457910476
2.36	7.428121902242
2.38	7.514697857617
2.4	7.600459181398
2.42	7.684861221297
2.44	7.767768968704
2.46	7.849374589994
2.48	7.929221006258
2.5	8.007316285391
2.52	8.083563767445
2.54	8.157879707689
2.56	8.230192912184
2.58	8.300461633660
2.6	8.368603712775
2.62	8.434602406311
2.64	8.498435086085
2.68	8.619551937861
2.7	8.676839087822
2.72	8.731960511872
2.74	8.784939304501
2.76	8.835803418252
2.78	8.884587524644
2.8	8.931331468812
2.82	8.976079582522
2.84	9.018879839816
2.86	9.059783787651
2.88	9.116688175448
3	9.316463607989
3.1	9.442890979060
3.2	9.540306993308
3.3	9.614788847779
end


spin-orbit-x X A
name "< X2Pi |LSX| A2Delta>" (1.3|LSX|1.1)
multiplicity    2   2
sigma   -0.5   0.5 (sign=~good, wobbly graph is a bit less wobbly)
lambda  1.0   2.0
factor  1.0 i   (1 or i)
<X|LZ|Y>  -I  -2I
type polynom_decay_24
morphing
values (values not done)
RE           1.119800
BETA         8.00000000000000E-01
GAMMA        2.00000000000000E-02
P            6.00000000000000E+00
B0           2.92647900781703e-01   fit    (  2.15416263965596e-01)  
B1           0.000000000000000000        ( -3.41698267849754e+01)
B2           0.000000000000000000      ( -1.35398782604611e+02)
B3           0.00000000000000E+00
BINF         1.0
end


(Sergey to check how the delta components are programmed in Duo, <2|LSX|4> or <3|LSX|1>)
abinitio spin-orbit-x X A
name "< X2Pi |LSX| A2Delta>" (1.3|LSX|1.1)
multiplicity    2   2
sigma   -0.5   0.5 (sign=~good, wobbly graph is a bit less wobbly)
lambda  1.0   2.0
factor  1.0 i   (1 or i)
<X|LZ|Y>  -I  -2I
type grid
units cm-1
units angstroms
fit_factor 1e-5
values
0.6	-8.785868005927
0.61	-8.736362480841
0.62	-8.688696791462
0.63	-8.645276017819
0.64	-8.604149927929
0.65	-8.565221764130
0.66	-8.528316363250
0.67	-8.493202402242
0.68	-8.459643351366
0.69	-8.427405529202
0.7	-8.396353905362
0.71	-8.366170146153
0.72	-8.336791804507
0.73	-8.308139104415
0.74	-8.280087023058
0.75	-8.252622328308
0.76	-8.225693598560
0.77	-8.199272819238
0.78	-8.173349392967
0.79	-8.147868489933
0.8	-8.122822174107
0.81	-8.098175047618
0.82	-8.073901519215
0.83	-8.049975905498
0.84	-8.026367907235
0.85	-8.003047457843
0.86	-7.979989444529
0.87	-7.957171326435
0.88	-7.934573685913
0.89	-7.912181333025
0.9	-7.889982788468
0.91	-7.867981006243
0.92	-7.846144244941
0.93	-7.824493659708
0.94	-7.803021622710
0.95	-7.781727285278
0.96	-7.760599542435
0.97	-7.739654300389
0.98	-7.718883448535
0.99	-7.698290992224
1	-7.677871029774
1.01	-7.657617298793
1.02	-7.637514767021
1.03	-7.617576086061
1.04	-7.598001219507
1.05	-7.545212888143
1.06	-7.525490489349
1.07	-7.505895909303
1.08	-7.486390558276
1.09	-7.466751487523
1.1	-7.447303229931
1.11	-7.427834739894
1.12	-7.408391071572
1.13	-7.389027082634
1.14	-7.369641486843
1.15	-7.349550176010
1.16	-7.331830274851
1.17	-7.309795102205
1.18	-7.286350857010
1.19	-7.241423467570
1.2	-7.222925020578
1.21	-7.229362256026
1.22	-7.213660720715
1.23	-7.198965034574
1.24	-7.171709635176
1.25	-7.189338216236
1.26	-7.176315535479
1.27	-7.164043531669
1.28	-7.152566688282
1.29	-7.141880212304
1.3	-7.131976206489
1.32	-7.114757283319
1.34	-7.100649362120
1.36	-7.073413912721
1.38	-7.064102353892
1.4	-7.057343396918
1.42	-7.052818114583
1.44	-7.050398126024
1.46	-7.035902169994
1.48	-7.037036315246
1.5	-7.040049060980
1.52	-7.044807032652
1.54	-7.081870407341
1.56	-7.059152454404
1.58	-7.058522169696
1.6	-7.071450537053
1.62	-7.083288366477
1.64	-7.096316704839
1.66	-7.145484281072
1.68	-7.165692989639
1.7	-7.187549979713
1.72	-7.204581387187
1.74	-7.222565422863
1.76	-7.231383704586
1.78	-7.229257821000
1.8	-7.249212686025
1.82	-7.270018743746
1.84	-7.292609031001
1.86	-7.315017368619
1.88	-7.338257959089
1.9	-7.362329549117
1.92	-7.387212526641
1.94	-7.412887027798
1.96	-7.439325834662
1.98	-7.466496791453
2	-7.494360233774
2.02	-7.522870371010
2.04	-7.551889886629
2.06	-7.581532061118
2.08	-7.611644589647
2.1	-7.642157626569
2.12	-7.672983503473
2.14	-7.704036521797
2.16	-7.739515420627
2.18	-7.772195986032
2.2	-7.804743044448
2.22	-7.837186815997
2.24	-7.869446573307
2.26	-7.901435785234
2.28	-7.933073005630
2.3	-7.964280187209
2.32	-7.994983421732
2.34	-8.025113071723
2.36	-8.054565300847
2.38	-8.083365846438
2.4	-8.111482723423
2.42	-8.137722909761
2.44	-8.163238900886
2.46	-8.187926500329
2.48	-8.211762365352
2.5	-8.234727050032
2.52	-8.256966628147
2.54	-8.278152450464
2.56	-8.298446849389
2.58	-8.317880817152
2.6	-8.336404059460
2.62	-8.354055012638
2.64	-8.370856983814
2.68	-8.401982487607
2.7	-8.424181236469
2.72	-8.437835045464
2.74	-8.450755990889
2.76	-8.462971815264
2.78	-8.474510993624
2.8	-8.455502508281
2.82	-8.465441354286
2.84	-8.474810774429
2.86	-8.483637868887
2.88	-8.491950096946
3	-8.532463086104
3.1	-8.556207555338
3.2	-8.573709450724
3.3	-8.586448828353
end

spin-orbit-x X C
name "< X2Pi |LSX| C2Sigma+>" (1.3|LSX|2.1, sign==good, graph is not as wobbly as before)
multiplicity    2   2
sigma   -0.5   0.5
lambda  1.0   0
factor  1.0 i   (1 or i)
<X|LZ|Y>  -I  0
type polynom_decay_24
morphing
values (values not done)
RE           1.119800
BETA         8.00000000000000E-01
GAMMA        2.00000000000000E-02
P            6.00000000000000E+00
B0           4.08040631967309e+00   fit    (  4.09033327436154e+00)  
B1           0.0000000000000000000
B2           0.000000000000000000
B3           0.00000000000000E+00
BINF         1.0
end

abinitio spin-orbit-x X C
name "< X2Pi |LSX| C2Sigma+>" (1.3|LSX|2.1, sign==good, graph is not as wobbly as before)
multiplicity    2   2
sigma   -0.5   0.5
lambda  1.0   0
factor  1.0 i   (1 or i)
<X|LZ|Y>  -I  0
type grid
units cm-1
units angstroms
fit_factor 1e-5
values
0.6	11.152163156913
0.61	11.099868745300
0.62	10.996568161605
0.63	10.947844267745
0.64	10.900258474047
0.65	10.853946951324
0.66	10.808938477185
0.67	10.765174744508
0.68	10.722555539883
0.69	10.680956173332
0.7	10.639689171394
0.71	10.599766166625
0.72	10.560519724169
0.73	10.521892854534
0.74	10.483757132388
0.75	10.446113263241
0.76	10.408904233658
0.77	10.372099534971
0.78	10.335667144811
0.79	10.299574330395
0.8	10.263792367926
0.81	10.228290929142
0.82	10.193038077543
0.83	10.158004281332
0.84	10.123161238915
0.85	10.088479323768
0.86	10.053933722885
0.87	10.019502956550
0.88	9.985165871858
0.89	9.950905855833
0.9	9.916707526889
0.91	9.882553576333
0.92	9.848456615140
0.93	9.814384809791
0.94	9.780340807856
0.95	9.746318830127
0.96	9.712313625255
0.97	9.678320544887
0.98	9.644328942544
0.99	9.610357004818
1	9.576395635971
1.01	9.542448079999
1.02	9.508532940053
1.03	9.474647910310
1.04	9.440709769001
1.05	9.411042544264
1.06	9.376843776704
1.07	9.342862674235
1.08	9.309048102884
1.09	9.275236022021
1.1	9.240339954950
1.11	9.203720453011
1.12	9.165175402551
1.13	9.125048080538
1.14	9.083673418129
1.15	9.040728002594
1.16	8.999569338532
1.17	8.949801669267
1.18	8.893836590596
1.19	8.845967600511
1.2	8.793540647657
1.21	8.731449626098
1.22	8.678448546962
1.23	8.624803955182
1.24	8.571588371831
1.25	8.551161635383
1.26	8.493907183735
1.27	8.435047297497
1.28	8.374501054938
1.29	8.311917290640
1.3	8.247157114322
1.32	8.110096638285
1.34	7.961200242754
1.36	7.751775950492
1.38	7.570490246109
1.4	7.370468071220
1.42	7.148612097463
1.44	6.901550541847
1.46	6.654488986231
1.48	6.336111798551
1.5	5.980784149516
1.52	5.585403501837
1.54	5.041579905219
1.56	4.667204745617
1.58	4.145375699194
1.6	3.587085639583
1.62	2.997017080652
1.64	2.385793890503
1.66	1.740140107770
1.68	1.145818816267
1.7	0.553727433260
1.72	-0.027626515217
1.74	-0.577284381472
1.76	-1.045654932665
1.78	-1.497159008320
1.8	-1.918143696495
1.82	-2.300226283142
1.84	-2.647425931918
1.86	-2.957647286707
1.88	-3.235769746122
1.9	-3.484464444901
1.92	-3.706505265365
1.94	-3.904485488777
1.96	-4.080822982428
1.98	-4.237732209808
2	-4.377225322992
2.02	-4.501116281488
2.04	-4.611533077570
2.06	-4.708927980485
2.08	-4.795111866031
2.1	-4.871251279728
2.12	-4.938416167307
2.14	-4.997521965032
2.16	-5.067188953641
2.18	-5.113519461898
2.2	-5.153880053475
2.22	-5.188912418213
2.24	-5.219156205894
2.26	-5.245117141705
2.28	-5.267244440570
2.3	-5.285943256575
2.32	-5.301579039009
2.34	-5.314481594620
2.36	-5.324985985406
2.38	-5.333415768353
2.4	-5.339821689601
2.42	-5.347576851982
2.44	-5.350578744245
2.46	-5.352293695160
2.48	-5.352882312738
2.5	-5.352489182098
2.52	-5.350898510665
2.54	-5.348926855811
2.56	-5.346326793501
2.58	-5.343138877330
2.6	-5.339561151107
2.62	-5.335586843570
2.64	-5.331334614938
2.68	-5.322147951113
2.7	-5.322670346360
2.72	-5.317680479396
2.74	-5.312631138140
2.76	-5.307553585735
2.78	-5.302474880969
2.8	-5.297411434138
2.82	-5.292537138214
2.84	-5.287719660132
2.86	-5.282970445121
2.88	-5.278301676240
3	-5.252343300067
3.1	-5.232285489700
3.2	-5.216939305882
3.3	-5.203932494012
end



spin-orbit-x a X
name "< a4Sigma- |LSX| X2Pi >" (1.4|LSX|1.2, sign=good, smooth)
multiplicity    4   2
sigma   1.5   0.5
lambda  0.0   1.0
factor  1.0 i   (1 or i)
<X|LZ|Y>  0  -I
type polynom_decay_24
morphing
values (values not done)
RE           1.119800
BETA         8.00000000000000E-01
GAMMA        2.00000000000000E-02
P            6.00000000000000E+00
B0           1.00                    (3.32950833831511e+00)     (  2.98245272265780e+00)
B1           0.0000000000000000000        ( -6.33403545545200e+01)
B2           0.000000000000000000      ( -1.35398782604611e+02)
B3           0.00000000000000E+00
BINF         1.0
end

abinitio spin-orbit-x a X
name "< a4Sigma- |LSX| X2Pi >" (1.4|LSX|1.2, sign=good, smooth)
multiplicity    4   2
sigma   1.5   0.5
lambda  0.0   1.0
factor  1.0 i   (1 or i)
<X|LZ|Y>  0  -I
type grid
units cm-1
units angstroms
values
0.6	11.62072526
0.61	11.56636636
0.62	11.51357262
0.63	11.40694374
0.64	11.35374853
0.65	11.30309634
0.66	11.25479343
0.67	11.20858948
0.68	11.16422744
0.69	11.12146582
0.7	11.08009086
0.71	11.03993359
0.72	11.00086226
0.73	10.96275419
0.74	10.92558296
0.75	10.88926263
0.76	10.85375342
0.77	10.8190181
0.78	10.78503501
0.79	10.75174207
0.8	10.71914837
0.81	10.68713724
0.82	10.65577522
0.83	10.62502837
0.84	10.59506916
0.85	10.56687283
0.86	10.54460143
0.87	10.51521218
0.88	10.48522056
0.89	10.45487973
0.9	10.42437516
0.91	10.39403647
0.92	10.36378089
0.93	10.33373679
0.94	10.30363636
0.95	10.27363532
0.96	10.24373583
0.965	10.22883977
0.975	10.19900016
0.98	10.18417618
0.99	10.15461655
1	10.12517825
1.01	10.09590062
1.02	10.0666951
1.03	10.03760767
1.04	10.00865642
1.05	9.979827068
1.06	9.9511149
1.07	9.922508997
1.08	9.893992819
1.09	9.865540334
1.1	9.837116431
1.11	9.808662306
1.12	9.780087866
1.13	9.75122458
1.14	9.721684404
1.15	9.690431818
1.16	9.64319643
1.17	9.608306255
1.18	9.579441478
1.19	9.552043706
1.2	9.525616254
1.21	9.499897368
1.22	9.474787629
1.23	9.450251099
1.24	9.426224012
1.25	9.428160982
1.26	9.404369553
1.27	9.38105655
1.28	9.358302398
1.29	9.336120976
1.3	9.31462432
1.32	9.273505851
1.34	9.235087389
1.36	9.128869887
1.38	9.095937345
1.4	9.065333013
1.42	9.036634383
1.44	9.010025293
1.46	9.005001381
1.48	8.98097715
1.5	8.958826175
1.52	8.938390268
1.54	8.919507154
1.56	8.901996972
1.58	8.885712779
1.6	8.872878538
1.62	8.858224537
1.64	8.844196286
1.66	8.830559305
1.68	8.817117057
1.7	8.812908328
1.72	8.798890965
1.74	8.784465353
1.76	8.76944953
1.78	8.75379096
1.8	8.737099926
1.82	8.719362967
1.84	8.701740375
1.86	8.681435274
1.88	8.659800306
1.9	8.636726675
1.92	8.612058889
1.94	8.586038626
1.96	8.558513457
1.98	8.529475524
2	8.498930721
2.02	8.466895299
2.04	8.433308374
2.06	8.398355652
2.08	8.361999302
2.1	8.324288954
2.12	8.285268625
2.14	8.245003041
2.16	8.203189884
2.18	8.160576711
2.2	8.116892217
2.22	8.072206639
2.24	8.026601358
2.26	7.980110752
2.28	7.932894142
2.3	7.885007956
2.32	7.836546087
2.34	7.787606184
2.36	7.738572494
2.38	7.688975625
2.4	7.639209513
2.42	7.589379692
2.44	7.539592039
2.46	7.489948503
2.48	7.44056453
2.5	7.391517917
2.52	7.342915988
2.54	7.294850721
2.56	7.247399087
2.58	7.200725843
2.6	7.154767047
2.62	7.109799427
2.64	7.065604421
2.68	6.980175325
2.7	6.93903319
2.72	6.898989839
2.74	6.8600733
2.76	6.822307394
2.78	6.785709242
2.8	6.750290316
2.82	6.716056518
2.84	6.683008207
2.86	6.651143548
2.88	6.620453847
3	6.460128308
3.1	6.355116651
3.2	6.272249281
3.3	6.221698008
end



spin-orbit  a C
name "<a4Sigma-|LSZ|C2sigma+>" (1.4|LSZ|2.1, smooth, sign=good)
spin   1.5 0.5
lambda  0  0
sigma  0.5 0.5
factor    i
type polynom_decay_24
morphing
values (values not done)
RE           1.119800
BETA         8.00000000000000E-01
GAMMA        2.00000000000000E-02
P            6.00000000000000E+00
B0           1.000000000000000000          (  1.00000000000000e+00)
B1           0.0000000000000000000        ( -6.33403545545200e+01)
B2           0.000000000000000000      ( -1.35398782604611e+02)
B3           0.00000000000000E+00
BINF         1.0
end

abinitio spin-orbit  a C
name "<a4Sigma-|LSZ|C2sigma+>" (1.4|LSZ|2.1, smooth, sign=good)
spin   1.5 0.5
lambda  0  0
sigma  0.5 0.5
units  cm-1
factor    i   (0, 1 or i)
type  grid
values
0.6	-24.52403233
0.61	-24.41153281
0.62	-24.30370644
0.63	-24.20260633
0.64	-24.1061494
0.65	-24.01565394
0.66	-23.93091975
0.67	-23.85157485
0.68	-23.77716065
0.69	-23.70719539
0.7	-23.64121677
0.71	-23.57881059
0.72	-23.51961876
0.73	-23.46333894
0.74	-23.40972319
0.75	-23.35856723
0.76	-23.30970223
0.77	-23.2629886
0.78	-23.21830851
0.79	-23.1755602
0.8	-23.13465328
0.81	-23.0954972
0.82	-23.05700392
0.83	-23.02118322
0.84	-22.98693185
0.85	-22.95420609
0.86	-22.9229944
0.87	-22.89334374
0.88	-22.86555479
0.89	-22.84214013
0.9	-22.81104427
0.91	-22.78123099
0.92	-22.75264467
0.93	-22.72523941
0.94	-22.69897345
0.95	-22.67380747
0.96	-22.64970906
0.965	-22.63805581
0.975	-22.61549297
0.98	-22.60461116
0.99	-22.58351991
1	-22.52140954
1.01	-22.49533157
1.02	-22.47077925
1.03	-22.4450459
1.04	-22.41906827
1.05	-22.39269703
1.06	-22.36593668
1.07	-22.33894986
1.08	-22.311923
1.09	-22.28512907
1.1	-22.25887721
1.11	-22.23348364
1.12	-22.20924875
1.13	-22.18621226
1.14	-22.16503485
1.15	-22.14564652
1.16	-22.12816837
1.17	-22.11265735
1.18	-22.09912006
1.19	-22.08753754
1.2	-22.07781217
1.21	-22.06985887
1.22	-22.06356632
1.23	-22.05880701
1.24	-22.0554418
1.25	-22.12184219
1.26	-22.1187482
1.27	-22.11577585
1.28	-22.11457439
1.29	-22.11408286
1.3	-22.11414997
1.32	-22.11535286
1.34	-22.11695277
1.36	-22.11766447
1.38	-22.11604843
1.4	-22.11052604
1.42	-22.09904388
1.44	-22.07923715
1.46	-22.14385063
1.48	-22.09273263
1.5	-22.02308151
1.52	-21.93000098
1.54	-21.8092505
1.56	-21.65567373
1.58	-21.46515819
1.6	-21.24004933
1.62	-20.96943109
1.64	-20.66077806
1.66	-20.3192469
1.68	-19.95256227
1.7	-19.57522612
1.72	-19.18665274
1.74	-18.8017411
1.76	-18.42847571
1.78	-18.07318513
1.8	-17.30655803
1.82	-17.00782185
1.84	-16.73990796
1.86	-16.48978329
1.88	-16.26332817
1.9	-16.05888055
1.92	-15.87496265
1.94	-15.70981877
1.96	-15.56168243
1.98	-15.42884536
2	-15.30970365
2.02	-15.20277206
2.04	-15.10707456
2.06	-15.02079048
2.08	-14.94292953
2.1	-14.87264913
2.12	-14.80908769
2.14	-14.7515378
2.16	-15.03197462
2.18	-14.98187326
2.2	-14.93632108
2.22	-14.89440547
2.24	-14.85593275
2.26	-14.82053981
2.28	-14.7879054
2.3	-14.61886675
2.32	-14.58986225
2.34	-14.56281204
2.36	-14.53754012
2.38	-14.51384841
2.4	-14.49160394
2.42	-14.47067559
2.44	-14.45094754
2.46	-14.43231645
2.48	-14.41469184
2.5	-14.3979929
2.52	-14.38214776
2.54	-14.36709226
2.56	-14.35276937
2.58	-14.33914316
2.6	-14.32613693
2.62	-14.3136052
2.64	-14.30174883
2.68	-14.27962057
2.7	-14.26925516
2.72	-14.25933533
2.74	-14.24983876
2.76	-14.24098949
2.78	-14.23228606
2.8	-14.2239509
2.82	-14.21596869
2.84	-14.208325
2.86	-14.20100524
2.88	-14.19399699
3	-14.15786326
3.1	-14.13518567
3.2	-14.1164188
3.3	-14.10179734
end

spin-orbit A A
name "<A2Delta|LSZ|A2Delta>" (1.4+2.4|LSZ|1.1,sign=good, smooth)
spin   0.5 0.5
lambda  2  2
sigma  0.5 0.5
<X|LZ|Y>  -2I  -2I
factor    i   (0, 1 or i)
type polynom_decay_24
morphing
values (values not done)
RE           1.119800
BETA         8.00000000000000E-01
GAMMA        2.00000000000000E-02
P            6.00000000000000E+00
B0          -1.54755351847880e+00   fit    ( -1.54872414931736e+00)  
B1           0.0                            (-9.31117015833277e+01  )    ( -9.15225557947941e+01)
B2           0.000000000000000000          (  0.00000000000000e+00)
B3           0.00000000000000E+00
BINF         1.0
end

abinitio spin-orbit  A A
name "<A2Delta|LSZ|A2Delta>" (1.4+2.4|LSZ|1.1,sign=good, smooth)
spin   0.5 0.5
lambda  2  2
sigma  0.5 0.5
units  cm-1
<X|LZ|Y>  -2I  -2I
factor    i   (0, 1 or i)
type grid
values
0.6	0.717013057
0.61	0.719292514
0.62	0.721534796
0.63	0.723743079
0.64	0.725887014
0.65	0.727952547
0.66	0.729928924
0.67	0.731808269
0.68	0.733585388
0.69	0.735257452
0.7	0.736823452
0.71	0.738283576
0.72	0.739638724
0.73	0.74089014
0.74	0.742038009
0.75	0.743086509
0.76	0.744006602
0.77	0.744858289
0.78	0.745903648
0.79	0.74657479
0.8	0.747152084
0.81	0.747635893
0.82	0.748025471
0.83	0.74831868
0.84	0.748513345
0.85	0.748598386
0.86	0.748567475
0.87	0.748410734
0.88	0.748118287
0.89	0.747681565
0.9	0.747093585
0.91	0.746348424
0.92	0.745443131
0.93	0.744363758
0.94	0.743101732
0.95	0.741641339
0.96	0.739960314
0.965	0.739027277
0.975	0.736948542
0.98	0.735787046
0.99	0.733162801
1	0.730023859
1.01	0.726204288
1.02	0.721677815
1.03	0.717076732
1.04	0.713557842
1.05	0.710858263
1.06	0.707757325
1.07	0.703963197
1.08	0.699781765
1.09	0.695350815
1.1	0.690705643
1.11	0.685850365
1.12	0.680783118
1.13	0.675502148
1.14	0.670007283
1.15	0.664300099
1.16	0.658383157
1.17	0.65226005
1.18	0.645934346
1.19	0.639350222
1.2	0.632727255
1.21	0.625860788
1.22	0.618812691
1.23	0.611555422
1.24	0.604091721
1.25	0.60091133
1.26	0.593041192
1.27	0.584973447
1.28	0.576712977
1.29	0.568264964
1.3	0.559635108
1.32	0.541854517
1.34	0.523423363
1.36	0.50440951
1.38	0.484828561
1.4	0.464775164
1.42	0.444486475
1.44	0.423718036
1.46	0.41231235
1.48	0.391100796
1.5	0.369833044
1.52	0.34860644
1.54	0.327519068
1.56	0.306668683
1.58	0.286153975
1.6	0.266795291
1.62	0.247164679
1.64	0.228128495
1.66	0.209764665
1.68	0.192131345
1.7	0.174802238
1.72	0.158814989
1.74	0.143677194
1.76	0.129407891
1.78	0.115887454
1.8	0.103372196
1.82	0.090265618
1.84	0.08070859
1.86	0.070876215
1.88	0.061836909
1.9	0.053556191
1.92	0.045997345
1.94	0.03912037
1.96	0.032883955
1.98	0.027246266
2	0.022165657
2.02	0.017601078
2.04	0.013503346
2.06	0.00987931
2.08	0.006794332
2.1	0.003889422
2.12	0.001363869
2.14	0.000896064
2.16	-0.002823119
2.18	-0.003907483
2.2	-0.005451121
2.22	-0.006849977
2.24	-0.007997648
2.26	-0.008975887
2.28	-0.009801698
2.3	-0.010491299
2.32	-0.011057239
2.34	-0.011513011
2.36	-0.011867157
2.38	-0.012137233
2.4	-0.012329294
2.42	-0.012452129
2.44	-0.012513787
2.46	-0.012521843
2.48	-0.012482555
2.5	-0.012402065
2.52	-0.01228606
2.54	-0.012139115
2.56	-0.01196589
2.58	-0.011760257
2.6	-0.011546796
2.62	-0.011317807
2.64	-0.011076095
2.68	-0.010401003
2.7	-0.010140209
2.72	-0.009875787
2.74	-0.009608687
2.76	-0.009339966
2.78	-0.009071492
2.8	-0.008803449
2.82	-0.008536918
2.84	-0.008272582
2.86	-0.008011079
2.88	-0.007752886
3	-0.006291062
3.1	-0.005520361
3.2	-0.004512192
3.3	-0.003658574
end

spin-orbit  B C
name "<B2Sigma-|LSZ|C2Sigma+>" (2.4+1.4|LSZ|2.1,sign=good, smooth, corrected)
spin   0.5 0.5
lambda  0  0
sigma  0.5 0.5
factor    i
type polynom_decay_24
morphing
values (values not done)
RE           1.119800
BETA         8.00000000000000E-01
GAMMA        2.00000000000000E-02
P            6.00000000000000E+00
B0           1.99023343313260e-01   fit    (  1.95761456383860e-01)  
B1           0.0000000000000000000        ( -6.33403545545200e+01)
B2           0.000000000000000000      ( -1.35398782604611e+02)
B3           0.00000000000000E+00
BINF         1.0
end

abinitio spin-orbit  B C
name "<B2Sigma-|LSZ|C2Sigma+>" (2.4+1.4|LSZ|2.1,sign=good, smooth, corrected)
spin   0.5 0.5
lambda  0  0
sigma  0.5 0.5
units  cm-1
factor    i   (0, 1 or i)
type grid
values
0.6	-17.79585318
0.61	-17.71651343
0.62	-17.64024635
0.63	-17.56761262
0.64	-17.49890975
0.65	-17.43419167
0.66	-17.37333049
0.67	-17.31607757
0.68	-17.26212297
0.69	-17.21113848
0.7	-17.16280884
0.71	-17.11685109
0.72	-17.07302019
0.73	-17.03111088
0.74	-16.9909513
0.75	-16.95240859
0.76	-16.91530099
0.77	-16.87966724
0.78	-16.84524993
0.79	-16.81220073
0.8	-16.78035018
0.81	-16.74964518
0.82	-16.72003679
0.83	-16.69148312
0.84	-16.66394772
0.85	-16.63739742
0.86	-16.61180379
0.87	-16.58713924
0.88	-16.56337364
0.89	-16.54047297
0.9	-16.51839889
0.91	-16.49711105
0.92	-16.47656658
0.93	-16.45673803
0.94	-16.43759567
0.95	-16.41912147
0.96	-16.40130895
0.965	-16.39312496
0.975	-16.37630785
0.98	-16.3681648
0.99	-16.35244016
1	-16.33751426
1.01	-16.32342059
1.02	-16.30998829
1.03	-16.29653976
1.04	-16.28253311
1.05	-16.26863001
1.06	-16.25497128
1.07	-16.24089403
1.08	-16.22655781
1.09	-16.21227719
1.1	-16.19814455
1.11	-16.18414798
1.12	-16.17026007
1.13	-16.15646965
1.14	-16.14279203
1.15	-16.12927853
1.16	-16.11601171
1.17	-16.10310237
1.18	-16.09067835
1.19	-16.07793078
1.2	-16.07243827
1.21	-16.06855286
1.22	-16.06589445
1.23	-16.06437597
1.24	-16.06391039
1.25	-16.06274287
1.26	-16.06277641
1.27	-16.06364545
1.28	-16.06526003
1.29	-16.06753293
1.3	-16.07037438
1.32	-16.07740339
1.34	-16.08561157
1.36	-16.09422892
1.38	-16.10231092
1.4	-16.1087918
1.42	-16.11229039
1.44	-16.1112558
1.46	-16.09013274
1.48	-16.06946974
1.5	-16.03682968
1.52	-15.98865474
1.54	-15.92115494
1.56	-15.83046773
1.58	-15.71306475
1.6	-15.57017905
1.62	-15.39275481
1.64	-15.18551866
1.66	-14.95138828
1.68	-14.69528523
1.7	-14.42684741
1.72	-14.1463487
1.74	-13.8642514
1.76	-13.58667285
1.78	-13.31895509
1.8	-13.06384908
1.82	-12.80033524
1.84	-12.58721252
1.86	-12.38629343
1.88	-12.20192935
1.9	-12.03325777
1.92	-11.87954571
1.94	-11.7397785
1.96	-11.61287955
1.98	-11.49776672
2	-11.39338903
2.02	-11.29874902
2.04	-11.21324628
2.06	-11.13534432
2.08	-11.0391607
2.1	-10.97282053
2.12	-10.91255567
2.14	-10.85754691
2.16	-10.80762882
2.18	-10.70858958
2.2	-10.66628261
2.22	-10.59129234
2.24	-10.55578424
2.26	-10.5228754
2.28	-10.49250333
2.3	-10.46440932
2.32	-10.43839552
2.34	-10.414253
2.36	-10.39181567
2.38	-10.37090168
2.4	-10.35138252
2.42	-10.33313257
2.44	-10.31603839
2.46	-10.29999809
2.48	-10.28492233
2.5	-10.27073041
2.52	-10.25734805
2.54	-10.24471364
2.56	-10.23267043
2.58	-10.22136296
2.6	-10.21064264
2.62	-10.20046953
2.64	-10.19080568
2.68	-10.17287096
2.7	-10.16454455
2.72	-10.1568364
2.74	-10.14926776
2.76	-10.14204733
2.78	-10.13515559
2.8	-10.12857601
2.82	-10.12229257
2.84	-10.11629124
2.86	-10.11055789
2.88	-10.10508041
3	-10.07699363
3.1	-10.05960572
3.2	-10.0451432
3.3	-10.03389255
end

Lx X B
name "<X2Pi|Lx|B2Sigma->" (1.2|LX| 2.4+1.4, sign=good, smooth)
lambda 1 0
spin 0.5 0.5
<x|Lz|y>  -i  0
factor i
type polynom_decay_24
morphing
values (values not done)
RE           1.119800
BETA         8.00000000000000E-01
GAMMA        2.00000000000000E-02
P            6.00000000000000E+00
B0           2.43642722448406e-01   fit    (  2.46609405331914e-01)  
B1          -2.23013857385022e+00   fit    ( -2.22259643604127e+00)  
B2           0.000000000000000000      ( -1.35398782604611e+02)
B3           0.00000000000000E+00
BINF         1.0
end

abinitio Lx X B
name "<X2Pi|Lx|B2Sigma->" (1.2|LX| 2.4+1.4, sign=good, smooth,)
lambda 1 0
spin 0.5 0.5
<x|Lz|y>  -i  0
factor i
type grid
values
0.6	-1.175284082840
0.61	-1.177525859645
0.62	-1.179766513819
0.63	-1.182001605840
0.64	-1.184227043414
0.65	-1.186439070846
0.66	-1.188634172275
0.67	-1.190809068295
0.68	-1.192960645680
0.69	-1.195085878029
0.7	-1.197181636668
0.71	-1.199240578015
0.72	-1.202816696939
0.73	-1.204814911861
0.74	-1.206775813757
0.75	-1.208697615122
0.76	-1.210578673926
0.77	-1.212417373321
0.78	-1.214211782331
0.79	-1.215961402153
0.8	-1.217664407843
0.81	-1.219319336757
0.82	-1.220925001688
0.83	-1.222479506642
0.84	-1.223982432244
0.85	-1.225431937032
0.86	-1.226826679189
0.87	-1.228165306503
0.88	-1.229446551046
0.89	-1.230669188645
0.9	-1.231832054346
0.91	-1.232934044457
0.92	-1.233974118746
0.93	-1.234950923665
0.94	-1.235864368798
0.95	-1.236713099394
0.96	-1.237496285614
0.97	-1.238213267878
0.98	-1.238863251186
0.99	-1.239445472871
1	-1.239958984703
1.01	-1.240402814078
1.02	-1.240748627916
1.03	-1.241049076026
1.04	-1.241276526804
1.05	-1.241429946127
1.06	-1.241508330804
1.07	-1.241510568981
1.08	-1.241435755366
1.09	-1.241282969797
1.1	-1.241051293013
1.11	-1.240780731654
1.12	-1.240390082572
1.13	-1.239917154353
1.14	-1.239360093030
1.15	-1.238716627822
1.16	-1.237982481866
1.17	-1.237153641370
1.18	-1.236220699395
1.19	-1.235180145660
1.2	-1.233951005503
1.21	-1.232224785332
1.22	-1.230759483476
1.23	-1.229288418048
1.24	-1.227573637910
1.25	-1.226034533040
1.26	-1.224413550075
1.27	-1.222709602698
1.28	-1.220922470594
1.29	-1.219053088260
1.3	-1.217099401484
1.32	-1.212944930291
1.34	-1.208420047100
1.36	-1.203506497768
1.38	-1.198341015959
1.4	-1.192951028201
1.42	-1.187368574396
1.44	-1.181588338126
1.46	-1.175624758969
1.48	-1.169496049462
1.5	-1.163224836888
1.52	-1.156834996751
1.54	-1.150354727808
1.56	-1.143811510626
1.58	-1.137233909610
1.6	-1.130650990362
1.62	-1.124091771300
1.64	-1.117583411655
1.66	-1.111153698327
1.68	-1.104825357604
1.7	-1.098615082450
1.72	-1.092559778602
1.74	-1.086671198395
1.76	-1.080966589389
1.78	-1.075460938450
1.8	-1.070166995114
1.82	-1.065095394057
1.84	-1.060254512833
1.86	-1.055650831826
1.88	-1.051288822906
1.9	-1.047171115598
1.92	-1.043298603759
1.94	-1.039670540067
1.96	-1.036284805901
1.98	-1.033137784863
2	-1.030224651737
2.02	-1.027539425265
2.04	-1.025075164983
2.06	-1.022823852275
2.08	-1.020774162181
2.1	-1.018922032403
2.12	-1.017254767535
2.14	-1.015761907617
2.16	-1.014437785174
2.18	-1.013261868718
2.2	-1.012227163125
2.22	-1.011322111343
2.24	-1.010536261609
2.26	-1.009858296603
2.28	-1.009277490012
2.3	-1.008783448925
2.32	-1.008366189851
2.34	-1.008016202900
2.36	-1.007724509346
2.38	-1.007167209672
2.4	-1.006974050306
2.42	-1.006814258936
2.44	-1.006681621981
2.46	-1.006574713094
2.48	-1.006483122700
2.5	-1.006404166598
2.52	-1.006333829680
2.54	-1.006268663448
2.56	-1.006205766419
2.58	-1.006142742526
2.6	-1.006077664226
2.62	-1.006009023784
2.64	-1.005935549237
2.68	-1.005771669991
2.7	-1.005680158389
2.72	-1.005582249359
2.74	-1.005478061905
2.76	-1.005367976763
2.78	-1.005251994535
2.8	-1.005130776045
2.82	-1.005004914642
2.84	-1.004875000113
2.86	-1.004741634921
2.88	-1.004605431675
3	-1.003760598798
3.1	-1.003076975801
3.2	-1.002456515818
3.3	-1.001919108191
end

Lx X A
name "<X2Pi|Lx|A2Delta>" (1.3|LX|1.1 can replace the other one with this or does 1.2/1.3 differ, sign=good)
lambda 1 2
spin 0.5 0.5
<x|Lz|y>  -i  -2i
factor i
type polynom_decay_24
morphing
values (values not done)
RE           1.119800
BETA         8.00000000000000E-01
GAMMA        2.00000000000000E-02
P            6.00000000000000E+00
B0           2.68621252245981e-01   fit    (  2.49252135391220e-01)  
B1          -3.14381076611024e+00   fit    ( -3.28142173571390e+00)  
B2          -4.56350493456416e+00   fit    ( -4.51962884154807e+00)  
B3           0.00000000000000E+00
BINF         1.0
end

abinitio Lx X A
name "<X2Pi|Lx|A2Delta>" (1.3|LX|1.1 can replace the other one with this or does 1.2/1.3 differ, sign=good)
lambda 1 2
spin 0.5 0.5
<x|Lz|y>  -i  -2i
factor i
type grid
values
0.6	0.646581609035
0.61	0.647969748795
0.62	0.649352172241
0.63	0.650726827503
0.64	0.652091860493
0.65	0.653445594385
0.66	0.654786507111
0.67	0.656113157329
0.68	0.657424410585
0.69	0.658719053339
0.7	0.659997630483
0.71	0.661255958548
0.72	0.662494770850
0.73	0.663713248644
0.74	0.664910636759
0.75	0.666086240922
0.76	0.667239401216
0.77	0.668369519718
0.78	0.669475728579
0.79	0.670558101925
0.8	0.671615778431
0.81	0.672648353118
0.82	0.673655321384
0.83	0.674636243602
0.84	0.675590678788
0.85	0.676518211644
0.86	0.677418441729
0.87	0.678290968201
0.88	0.679135391278
0.89	0.679951310180
0.9	0.680738319852
0.91	0.681496002342
0.92	0.682223948517
0.93	0.682921719326
0.94	0.683588862602
0.95	0.684224866273
0.96	0.684828787867
0.97	0.685400985299
0.98	0.685940317121
0.99	0.686446142821
1	0.686917549716
1.01	0.687353399586
1.02	0.687751967204
1.03	0.688111579976
1.04	0.688415148484
1.05	0.688687090433
1.06	0.688909873312
1.07	0.689079808997
1.08	0.689196377551
1.09	0.689281856630
1.1	0.689318323888
1.11	0.689345274441
1.12	0.689372348068
1.13	0.689387073973
1.14	0.689381423555
1.15	0.689359915093
1.16	0.689255565695
1.17	0.689061617065
1.18	0.688722359730
1.19	0.688313273567
1.2	0.687894799297
1.21	0.687449747339
1.22	0.686961552939
1.23	0.686430263538
1.24	0.685852365541
1.25	0.685227048395
1.26	0.684553136812
1.27	0.683828369954
1.28	0.683057148022
1.29	0.682231472566
1.3	0.681355780997
1.32	0.679438421829
1.34	0.677235954041
1.36	0.674763573568
1.38	0.672072305480
1.4	0.669135928952
1.42	0.665945174500
1.44	0.662492834477
1.46	0.658778863685
1.48	0.654773443565
1.5	0.650481016505
1.52	0.645898104549
1.54	0.641022714891
1.56	0.635853519481
1.58	0.630392483823
1.6	0.624642559632
1.62	0.618607519074
1.64	0.612293985813
1.66	0.605709750059
1.68	0.598863991877
1.7	0.591767044621
1.72	0.584430207499
1.74	0.576865442066
1.76	0.569085304154
1.78	0.561102456020
1.8	0.552929622881
1.82	0.544579336444
1.84	0.536061246236
1.86	0.527392334345
1.88	0.518581004788
1.9	0.509637835101
1.92	0.500572734228
1.94	0.491394993548
1.96	0.482113333191
1.98	0.472735986163
2	0.463270768941
2.02	0.453725158976
2.04	0.444106455679
2.06	0.434421849123
2.08	0.424678565007
2.1	0.414883929023
2.12	0.405045977426
2.14	0.395171710293
2.16	0.385269903981
2.18	0.375333871468
2.2	0.365404145297
2.22	0.355474554077
2.24	0.345555473698
2.26	0.335657619765
2.28	0.325792226507
2.3	0.315970917350
2.32	0.306205643579
2.34	0.296508575170
2.36	0.286892057501
2.38	0.277368421345
2.4	0.267795190449
2.42	0.258499833148
2.44	0.249333306133
2.46	0.240307005581
2.48	0.231431699535
2.5	0.222717577189
2.52	0.214170646620
2.54	0.205806553421
2.56	0.197629811813
2.58	0.189647534762
2.6	0.181865599693
2.62	0.174289312381
2.64	0.166923051442
2.68	0.152832997483
2.7	0.146113209664
2.72	0.139611556431
2.74	0.133328083462
2.76	0.127262095706
2.78	0.121412227027
2.8	0.115776431704
2.82	0.110352095563
2.84	0.105136161796
2.86	0.100124905624
2.88	0.095314405840
3	0.070405836233
3.1	0.054200413316
3.2	0.041525804786
3.3	0.031669582607
end

Lx X C
name "<X2Pi|Lx|C2Sigma+>" (1.3|LX|2.1, sign=good, smooth)
lambda 1 0
spin 0.5 0.5
<x|Lz|y>  -i  0
factor i
type polynom_decay_24
morphing
values (values not done)
RE           1.119800
BETA         8.00000000000000E-01
GAMMA        2.00000000000000E-02
P            6.00000000000000E+00
B0           5.26329614475453e-01   fit    (  5.25233776910406e-01)  
B1           0.0000000000000000000
B2           0.000000000000000000
B3           0.00000000000000E+00
BINF         1.0
end

abinitio Lx X C
name "<X2Pi|Lx|C2Sigma+>" (1.3|LX|2.1, sign=good, smooth)
lambda 1 0
spin 0.5 0.5
<x|Lz|y>  -i  0
factor i
type grid
values
0.6	-0.501647039744
0.61	-0.503050056459
0.62	-0.504482892270
0.63	-0.505942207975
0.64	-0.507424943275
0.65	-0.508928269581
0.66	-0.510449577273
0.67	-0.511986457220
0.68	-0.513536684667
0.69	-0.515098201343
0.7	-0.516667577323
0.71	-0.518246203629
0.72	-0.519830832197
0.73	-0.521419947436
0.74	-0.523012167242
0.75	-0.524606198076
0.76	-0.526200841114
0.77	-0.527794984958
0.78	-0.529388267990
0.79	-0.530978346585
0.8	-0.532565054246
0.81	-0.534147585223
0.82	-0.535725175817
0.83	-0.537297123345
0.84	-0.538862783191
0.85	-0.540421541754
0.86	-0.541972839152
0.87	-0.543516159051
0.88	-0.545051023237
0.89	-0.546576987955
0.9	-0.548093641471
0.91	-0.549600595807
0.92	-0.551097490760
0.93	-0.552583967451
0.94	-0.554059679020
0.95	-0.555524273956
0.96	-0.556978145456
0.97	-0.558419355436
0.98	-0.559848197365
0.99	-0.561264190618
1	-0.562666633323
1.01	-0.564054781854
1.02	-0.565427780805
1.03	-0.566784676569
1.04	-0.568131696819
1.05	-0.569450555683
1.06	-0.570748324667
1.07	-0.572020666029
1.08	-0.573265473051
1.09	-0.574481867393
1.1	-0.575705981885
1.11	-0.576955087851
1.12	-0.578237773603
1.13	-0.579543216358
1.14	-0.580852081096
1.15	-0.582148303986
1.16	-0.583351451176
1.17	-0.584692125096
1.18	-0.586072839766
1.19	-0.587448631336
1.2	-0.588800017716
1.21	-0.590150071128
1.22	-0.591508457201
1.23	-0.592879524965
1.24	-0.594263605741
1.25	-0.595669489383
1.26	-0.597097741249
1.27	-0.598550717574
1.28	-0.600022638777
1.29	-0.601533939331
1.3	-0.603077084045
1.32	-0.606260955257
1.34	-0.609641696043
1.36	-0.613227787546
1.38	-0.616984411586
1.4	-0.620943164333
1.42	-0.625116289163
1.44	-0.629518334792
1.46	-0.634145395105
1.48	-0.638977950596
1.5	-0.643969029488
1.52	-0.649041164926
1.54	-0.654086613221
1.56	-0.658941774693
1.58	-0.663425807802
1.6	-0.667327397804
1.62	-0.670449017821
1.64	-0.672604621499
1.66	-0.673661943511
1.68	-0.673555397237
1.7	-0.672289909936
1.72	-0.669931968435
1.74	-0.666590947438
1.76	-0.662397698682
1.78	-0.657485281996
1.8	-0.651975580760
1.82	-0.645971862098
1.84	-0.639571182161
1.86	-0.632803164583
1.88	-0.625726404796
1.9	-0.618369563538
1.92	-0.610750364786
1.94	-0.602878650849
1.96	-0.594758754057
1.98	-0.586391801625
2	-0.577777141705
2.02	-0.568913547782
2.04	-0.559800208511
2.06	-0.550437228745
2.08	-0.540826198217
2.1	-0.530970515385
2.12	-0.520879647190
2.14	-0.510557079657
2.16	-0.500003497323
2.18	-0.489246404699
2.2	-0.478289921502
2.22	-0.467151679277
2.24	-0.455850168865
2.26	-0.444404097124
2.28	-0.432834152327
2.3	-0.421162269788
2.32	-0.409411452073
2.34	-0.397605481870
2.36	-0.385768730843
2.38	-0.373928169659
2.4	-0.362138998992
2.42	-0.350357942714
2.44	-0.338644027342
2.46	-0.327020525193
2.48	-0.315510133881
2.5	-0.304134328853
2.52	-0.292890758726
2.54	-0.281844282978
2.56	-0.270989203205
2.58	-0.260343338133
2.6	-0.249917678531
2.62	-0.239718958163
2.64	-0.229774447305
2.68	-0.210659874479
2.7	-0.201504042147
2.72	-0.192622892720
2.74	-0.184019979824
2.76	-0.175697501423
2.78	-0.167656446980
2.8	-0.159896570505
2.82	-0.152416582000
2.84	-0.145214149063
2.86	-0.138286305929
2.88	-0.131629079706
3	-0.097076173590
3.1	-0.074644979037
3.2	-0.057028362787
3.3	-0.043347654867
end




bob-rot X X
name "<X|BR|X>"
lambda 1 1
spin 0.5 0.5
type polynom_decay_24
values (values not done)
RE           1.119800
BETA         8.00000000000000E-01
GAMMA        2.00000000000000E-02
P            6.00000000000000E+00
B0          -1.35343899181054e-02   fit    ( -1.35505407668902e-02)  
B1          -2.50996902562264e-02   fit    ( -2.51354129533009e-02)  
B2     0
B3           0.000000000000000000
BINF         0.0
end


bob-rot    A A
name    <A|BR|A>
type      POLYNOM_DECAY_24
lambda 2 2
spin 0.5 0.5
type polynom_decay_24
Values
RE           1.9
BETA         8.00000000000000E-01
GAMMA        2.00000000000000E-02
P            6.00000000000000E+00
B0           4.13456861399764e-03   fit    (  4.13760101629703e-03)  
B1           1.02125878093360e-02   fit    (  1.02069023316514e-02)  
B2           0.00000000000000E+00
B3           0.00000000000000E+00
BINF         0.00000000000000E+00
end


bob-rot    B B
name    <X|BR|X>
type      POLYNOM_DECAY_24
lambda 0 0
spin 0.5 0.5
type polynom_decay_24
Values
RE           1.90232884614827E+00
BETA         8.00000000000000E-01
GAMMA        2.00000000000000E-02
P            6.00000000000000E+00
B0           6.13847348160908e-03   fit    (  6.27732295222049e-03)  
B1          -2.37072941363955e-02   fit    ( -2.28341411087831e-02)  
B2           0.00000000000000E+00
B3           0.00000000000000E+00
BINF         0.00000000000000E+00
end


bob-rot    C C
name    <X|BR|X>
type      POLYNOM_DECAY_24
lambda 0 0
spin 0.5 0.5
type polynom_decay_24
Values
RE           1.90232884614827E+00
BETA         8.00000000000000E-01
GAMMA        2.00000000000000E-02
P            6.00000000000000E+00
B0           3.28381045197084e-03   fit    (  3.28307147836538e-03)  
B1           7.47513945931669e-03   fit    (  7.49143334740894e-03)  
B2           0.00000000000000E+00
B3           0.00000000000000E+00
BINF         0.00000000000000E+00
end



spin-rotation X X
name "<X|SR|X>"
lambda 1 1
spin 0.5 0.5
type polynom_decay_24
values (values not done)
RE           1.119800
BETA         8.00000000000000E-01
GAMMA        2.00000000000000E-02
P            6.00000000000000E+00
B0          -3.57732477292649e-03   fit    ( -2.87127275738201e-03)  
B1           0.000000000000000             (  6.61477140432081e-02)
B2           0.000000000000000000
B3           0.00000000000000E+00
BINF         0.0
end

spin-rotation C C
name "<X|SR|X>"
lambda 0 0
spin 0.5 0.5
type polynom_decay_24
values
RE           1.11180000000000E+00
BETA         8.00000000000000E-01
GAMMA        2.00000000000000E-02
P            6.00000000000000E+00
B0           0.00000000000000000           (  0.00000000000000e+00)
B1           0.00000000000000000           ( -3.47763962535212e-01)
B2           0.0000000000000000000         (  4.11130415703215e+00)
B3           0.00000000000000E+00
BINF         0.00000000000000E+00
end


spin-rotation A A
name "<X|SR|X>"
lambda 2 2
spin 0.5 0.5
type polynom_decay_24
values
RE           1.11180000000000E+00
BETA         8.00000000000000E-01
GAMMA        2.00000000000000E-02
P            6.00000000000000E+00
B0           4.24449606854865e-02   fit    (  4.17247473325949e-02)  
B1           4.66466882206347e-03   fit    (  5.18993625692571e-03)  
B2           0.000000000000000000          (  4.42947776323932e+00)
B3           0.00000000000000E+00
BINF         0.00000000000000E+00
end



lambda-opq X0 X0
name "lambda-opq X"
lambda 1 1
spin 0.5 0.5
units angstrom cm-1
type polynom_decay_24
values
RE           1.11180000000000E+00
BETA         8.00000000000000E-01
GAMMA        2.00000000000000E-02
P            6.00000000000000E+00
B0           0.00000000000000000              (  0.00000000000000e+00)
B1           0.00000000000000000                 ( -3.47763962535212e-01)
B2           0.0000000000000000000         (  4.11130415703215e+00)
B3           0.00000000000000E+00
BINF         0.00000000000000E+00
end

lambda-p2q X X
name "lambda-p2q X"
lambda 1 1
spin 0.5 0.5
units angstrom cm-1
type polynom_decay_24
values
RE           1.11180000000000E+00
BETA         8.00000000000000E-01
GAMMA        2.00000000000000E-02
P            6.00000000000000E+00
B0           7.82967751905728e-02   fit    (  7.81838849735393e-02)  
B1           0.0000000000000000000         (  3.44800501648489e-01)
B2           0.000000000000000             (  0.00000000000000e+00)
B3           0.00000000000000E+00
BINF         0.00000000000000E+00
end

lambda-q X X
name "lambda-q-X"
lambda 1 1
spin 0.5 0.5
units angstrom cm-1
type polynom_decay_24
values
RE           1.11180000000000E+00
BETA         8.00000000000000E-01
GAMMA        2.00000000000000E-02
P            6.00000000000000E+00
B0           3.87319825377002e-02   fit    (  3.86414112625504e-02)  
B1           0.000000000000000000          (  8.48594938098112e-03)
B2           0.00000000000000000           (  0.00000000000000e+00)
B3           0.00000000000000E+00
BINF         0.00000000000000E+00
end



dipole  X X
name "<X2Pi |DMZ| X2Pi >"
spin   0.5 0.5
lambda  1  1
factor   1   (0, 1 or i)
type polynom_decay_24
values
RE           1.38000000000000E+00
BETA         2.13683514373843E-01
GAMMA        1.00000000000000E-03
P            6.00000000000000E+00
B0           8.85291967135082E-01
B1          -2.61054062071634E-01
B2          -1.08710011229456E+00
B3          -3.47969203901376E+00
B4          -4.99215675968748E+00
B5          -5.71585192657891E-01
B6           3.25061169252206E+00
BINF         0.00000000000000E+00
end



dipole-x X B
name "<X2Pi|DMX|B2Sigma->" (1.3|DMX|2.4+1.4, sign=not good for 1.1 for DMY*, smooth, there's also a 1.2|DMY|2.4+1.4, v slightly
spin   0.5 0.5
lambda  1  0
<x|lz|y> -i 0
type   grid
values
0.6	1.179496336340
0.61	1.172599418266
0.62	1.165439435345
0.63	1.158031232708
0.64	1.150388488931
0.65	1.142523784357
0.66	1.134448928058
0.67	1.126174988994
0.68	1.117712590111
0.69	1.109072310181
0.7	1.100265690214
0.71	1.091320348336
0.72	1.077531259307
0.73	1.068212575646
0.74	1.058751165471
0.75	1.049152919620
0.76	1.039424468968
0.77	1.029569174514
0.78	1.019592783894
0.79	1.009502276088
0.8	0.999302103856
0.81	0.988997799479
0.82	0.978595474671
0.83	0.968098557469
0.84	0.957517418961
0.85	0.946855171001
0.86	0.936116762977
0.87	0.925306775954
0.88	0.914428946688
0.89	0.903486432392
0.9	0.892481865679
0.91	0.881417523490
0.92	0.870295564054
0.93	0.859117764539
0.94	0.847886704555
0.95	0.836604167938
0.96	0.825272280117
0.97	0.813892748696
0.98	0.802468437853
0.99	0.791001258565
1	0.779499585060
1.01	0.767956688888
1.02	0.756386822502
1.03	0.744780771626
1.04	0.733151028453
1.05	0.721500527002
1.06	0.709833311433
1.07	0.698153730153
1.08	0.686464871172
1.09	0.674770090857
1.1	0.663072602228
1.11	0.651398265986
1.12	0.639708720906
1.13	0.628024917336
1.14	0.616350077073
1.15	0.604685563088
1.16	0.593028928244
1.17	0.581386978255
1.18	0.569777474627
1.19	0.558139701101
1.2	0.546926133136
1.21	0.536037746310
1.22	0.525014567911
1.23	0.513927349331
1.24	0.502243988860
1.25	0.491102787346
1.26	0.480018662895
1.27	0.469004379569
1.28	0.458066350800
1.29	0.447212451820
1.3	0.436517807531
1.32	0.415273087935
1.34	0.394491786077
1.36	0.374143752177
1.38	0.354180309998
1.4	0.334623796663
1.42	0.315458318064
1.44	0.296762400658
1.46	0.278568663171
1.48	0.260910234606
1.5	0.243838463692
1.52	0.227330704683
1.54	0.211434106297
1.56	0.196162627028
1.58	0.181510959820
1.6	0.167521350359
1.62	0.154182156429
1.64	0.141495203590
1.66	0.129494224462
1.68	0.118099548259
1.7	0.107292210158
1.72	0.097157343571
1.74	0.087636948112
1.76	0.078715542178
1.78	0.070377220841
1.8	0.062604201132
1.82	0.055377803402
1.84	0.048677589858
1.86	0.042483053248
1.88	0.036772829067
1.9	0.031525213729
1.92	0.026718285848
1.94	0.022330023638
1.96	0.018338355498
1.98	0.014721522586
2	0.011458013305
2.02	0.008526724689
2.04	0.005907379438
2.06	0.003579296626
2.08	0.001515938331
2.1	-0.000286133603
2.12	-0.001853184576
2.14	-0.003202658142
2.16	-0.004342058098
2.18	-0.005308491001
2.2	-0.006104772860
2.22	-0.006738397263
2.24	-0.007236161822
2.26	-0.007605152197
2.28	-0.007857690049
2.3	-0.008005372335
2.32	-0.008059143428
2.34	-0.008029352605
2.36	-0.007925633064
2.38	-0.008119850402
2.4	-0.007871989621
2.42	-0.007594745048
2.44	-0.007291017581
2.46	-0.006923232686
2.48	-0.006539485218
2.5	-0.006132130081
2.52	-0.005706326508
2.54	-0.005266723506
2.56	-0.004817526212
2.58	-0.004362498479
2.6	-0.003904999297
2.62	-0.003448004864
2.64	-0.002993147628
2.68	-0.002103658517
2.7	-0.001672316442
2.72	-0.001250608432
2.74	-0.000840242825
2.76	-0.000441468494
2.78	-0.000057533133
2.8	0.000312185967
2.82	0.000667341380
2.84	0.001007619607
2.86	0.001332822328
2.88	0.001642859780
3	0.003211435677
3.1	0.004120010182
3.2	0.004737840324
3.3	0.005115365899
end

dipole-x X A
name "<X2Pi|DMX|A2Delta>" (1.2|DMX|1.1,sign==good, smooth, there's a 1.3|DMY|1.1 of opposite sign but v similar)
spin   0.5 0.5
lambda  1  2
<x|lz|y> -i -2i
type   grid
values
0.6	-0.762953765109
0.61	-0.759501044179
0.62	-0.755948060661
0.63	-0.752300971310
0.64	-0.748565213359
0.65	-0.744745780718
0.66	-0.740847233302
0.67	-0.736873112205
0.68	-0.732828491212
0.69	-0.728716247058
0.7	-0.724519300311
0.71	-0.720281421214
0.72	-0.715984704071
0.73	-0.711631601266
0.74	-0.707224290273
0.75	-0.702764827492
0.76	-0.698255077059
0.77	-0.693696698304
0.78	-0.689088733438
0.79	-0.684437780710
0.8	-0.679743417228
0.81	-0.675004946346
0.82	-0.670224374050
0.83	-0.665402651094
0.84	-0.660540702643
0.85	-0.655639311421
0.86	-0.650699142735
0.87	-0.645720838320
0.88	-0.640704997466
0.89	-0.635652177128
0.9	-0.630562903934
0.91	-0.625437661667
0.92	-0.620277105724
0.93	-0.615081758495
0.94	-0.609852471240
0.95	-0.604590903376
0.96	-0.599293612207
0.97	-0.593970313683
0.98	-0.588620054135
0.99	-0.583244239818
1	-0.577847337390
1.01	-0.572433921055
1.02	-0.567009206262
1.03	-0.561579611426
1.04	-0.556118744892
1.05	-0.550707767196
1.06	-0.545325970006
1.07	-0.539984530544
1.08	-0.534682402373
1.09	-0.529394864192
1.1	-0.523921411572
1.11	-0.518148319855
1.12	-0.512018566911
1.13	-0.505610063552
1.14	-0.499012440004
1.15	-0.492259531615
1.16	-0.487214227374
1.17	-0.480068479250
1.18	-0.473566159528
1.19	-0.467488706016
1.2	-0.461528314432
1.21	-0.455574836026
1.22	-0.449616459114
1.23	-0.443636281380
1.24	-0.437628123180
1.25	-0.431600691040
1.26	-0.425541485115
1.27	-0.419466573640
1.28	-0.413377116514
1.29	-0.407288258209
1.3	-0.401216206943
1.32	-0.389170466842
1.34	-0.377051301430
1.36	-0.364692291497
1.38	-0.352147558203
1.4	-0.339500351122
1.42	-0.326780094443
1.44	-0.314021425379
1.46	-0.301232464126
1.48	-0.288482958352
1.5	-0.275777420487
1.52	-0.263140062126
1.54	-0.250593814348
1.56	-0.238167618582
1.58	-0.225887179879
1.6	-0.213798833684
1.62	-0.201892541166
1.64	-0.190210908002
1.66	-0.178778741540
1.68	-0.167618785719
1.7	-0.156753197574
1.72	-0.146201329022
1.74	-0.135979469514
1.76	-0.126104122502
1.78	-0.116586665845
1.8	-0.107437148510
1.82	-0.098662496613
1.84	-0.090256338461
1.86	-0.082239103686
1.88	-0.074603999213
1.9	-0.067349093515
1.92	-0.060470544455
1.94	-0.053962870789
1.96	-0.047819126364
1.98	-0.042030939405
2	-0.036589133798
2.02	-0.031483616905
2.04	-0.026703699464
2.06	-0.022238144243
2.08	-0.018075379878
2.1	-0.014203672944
2.12	-0.010603694673
2.14	-0.007277289858
2.16	-0.004207242548
2.18	-0.001414991593
2.2	0.001179452806
2.22	0.003555227313
2.24	0.005718983831
2.26	0.007683503301
2.28	0.009459245793
2.3	0.011056410104
2.32	0.012484860599
2.34	0.013753990586
2.36	0.014873398905
2.38	0.015851789956
2.4	0.016912620341
2.42	0.017626432793
2.44	0.018224198640
2.46	0.018714723001
2.48	0.019105280942
2.5	0.019403332632
2.52	0.019532852195
2.54	0.019668086541
2.56	0.019731901264
2.58	0.019725926427
2.6	0.019664722256
2.62	0.019549812782
2.64	0.019385972102
2.68	0.018931906803
2.7	0.018650729539
2.72	0.018339207344
2.74	0.018001433866
2.76	0.017641210773
2.78	0.017262019645
2.8	0.016867008834
2.82	0.016459086204
2.84	0.016042340668
2.86	0.015616286350
2.88	0.015184587656
3	0.012576690321
3.1	0.010341021422
3.2	0.008519984225
3.3	0.006928216127
end

dipole-x X C
name "<X2Pi|DMX|C2Sigma+>" (1.2|DMX|2.1, sign==good, smooth, there's a 1.3|DMY|2.1 v similar, same sign)
spin   0.5 0.5
lambda  1  0
<x|lz|y> -i 0
type   grid
values
0.6	-1.072509789004
0.61	-1.067747398278
0.62	-1.062868191685
0.63	-1.057880415464
0.64	-1.052791275936
0.65	-1.047607231918
0.66	-1.042334069641
0.67	-1.036976940254
0.68	-1.031540544139
0.69	-1.026028964589
0.7	-1.020442287913
0.71	-1.014790923532
0.72	-1.009074049087
0.73	-1.003294159099
0.74	-0.997453294096
0.75	-0.991553279718
0.76	-0.985595621916
0.77	-0.979581606578
0.78	-0.973511075791
0.79	-0.967387188749
0.8	-0.961209396406
0.81	-0.954977960384
0.82	-0.948693164999
0.83	-0.942355039263
0.84	-0.935963359377
0.85	-0.929517903285
0.86	-0.923018228984
0.87	-0.916463730222
0.88	-0.909853648549
0.89	-0.903187074718
0.9	-0.896462943046
0.91	-0.889679948023
0.92	-0.882837009670
0.93	-0.875932337107
0.94	-0.868964416964
0.95	-0.861931611501
0.96	-0.854833311792
0.97	-0.847665587686
0.98	-0.840428051470
0.99	-0.833116411388
1	-0.825729411970
1.01	-0.818264700268
1.02	-0.810720818014
1.03	-0.803089270178
1.04	-0.795400896420
1.05	-0.787583759753
1.06	-0.779642552037
1.07	-0.771560918547
1.08	-0.763310070810
1.09	-0.754795747105
1.1	-0.746108812205
1.11	-0.737210661325
1.12	-0.728155282767
1.13	-0.718968862923
1.14	-0.709530390367
1.15	-0.699676861187
1.16	-0.691299407102
1.17	-0.680319999749
1.18	-0.669356813776
1.19	-0.659039261785
1.2	-0.649254665860
1.21	-0.639642286688
1.22	-0.630085679805
1.23	-0.620525855651
1.24	-0.610922798698
1.25	-0.601285772384
1.26	-0.591577209600
1.27	-0.581797178551
1.28	-0.571902332543
1.29	-0.561922230059
1.3	-0.551792422822
1.32	-0.531009457190
1.34	-0.509635903461
1.36	-0.487835997179
1.38	-0.465479305208
1.4	-0.442436165990
1.42	-0.418619299155
1.44	-0.393974341601
1.46	-0.368460731475
1.48	-0.342060143722
1.5	-0.314767950291
1.52	-0.286623122001
1.54	-0.257713886932
1.56	-0.228178116112
1.58	-0.198248126959
1.6	-0.168244501763
1.62	-0.138519798128
1.64	-0.109517670210
1.66	-0.081679576027
1.68	-0.055412923367
1.7	-0.031051099342
1.72	-0.008824150769
1.74	0.011149603088
1.76	0.028856694499
1.78	0.044367028230
1.8	0.057783189547
1.82	0.069323636956
1.84	0.079122961671
1.86	0.087408328431
1.88	0.094333935797
1.9	0.100062714323
1.92	0.104742321152
1.94	0.108503948137
1.96	0.111463558991
1.98	0.113721879589
2	0.115366854929
2.02	0.116474843678
2.04	0.117112139869
2.06	0.117336380119
2.08	0.117197574128
2.1	0.116739682168
2.12	0.116001943418
2.14	0.115013887676
2.16	0.113784497832
2.18	0.112359147247
2.2	0.110797466167
2.22	0.109090539741
2.24	0.107253902135
2.26	0.105306013800
2.28	0.103262241702
2.3	0.101136545726
2.32	0.098941641991
2.34	0.096688704997
2.36	0.094389749481
2.38	0.092006631873
2.4	0.089659204614
2.42	0.087278275208
2.44	0.084886291950
2.46	0.082490848639
2.48	0.080097446225
2.5	0.077712750522
2.52	0.075313992116
2.54	0.072963241685
2.56	0.070636737149
2.58	0.068335111443
2.6	0.066069664828
2.62	0.063810132396
2.64	0.061620018507
2.68	0.057364010272
2.7	0.055301819807
2.72	0.053285970446
2.74	0.051318103100
2.76	0.049399460119
2.78	0.047530857391
2.8	0.045712821386
2.82	0.043945690679
2.84	0.042229077907
2.86	0.040563972049
2.88	0.038949623562
3	0.030304616167
3.1	0.024032047045
3.2	0.019185845083
3.3	0.015233585303
end

dipole-x b a
name "<b4Pi|DMX|a4Sigma->" (1.3|DMX|1.4, smooth, sign=good, there's a 1.2|DMY|1.4 -v similar but sign change)
spin   1.5 1.5
lambda  1  0
<x|lz|y> -i 0
type   grid
values
0.6	-1.418412686
0.61	-1.420819802
0.62	-1.423070433
0.63	-1.425172604
0.64	-1.427134774
0.65	-1.428966699
0.66	-1.430677067
0.67	-1.432277929
0.68	-1.433782668
0.69	-1.43520762
0.7	-1.436573588
0.71	-1.437908325
0.72	-1.439250761
0.73	-1.440659429
0.74	-1.442227148
0.75	-1.444160868
0.76	-1.446709496
0.77	-1.450572251
0.78	-1.456114851
0.79	-1.460539953
0.8	-1.462922288
0.81	-1.464119916
0.82	-1.464596163
0.83	-1.46456441
0.84	-1.464132428
0.85	-1.463357559
0.86	-1.462269759
0.87	-1.460881898
0.88	-1.45919486
0.89	-1.457199819
0.9	-1.454879041
0.91	-1.452205821
0.92	-1.449142391
0.93	-1.445639772
0.94	-1.44163201
0.95	-1.437058085
0.96	-1.431705059
0.97	-1.425522355
0.98	-1.418225199
0.99	-1.409452156
1	-1.398617579
1.01	-1.384688856
1.02	-1.365672863
1.03	-1.337784559
1.04	-1.298010096
1.05	-1.253610964
1.06	-1.212296763
1.07	-1.174201145
1.08	-1.138098659
1.09	-1.103386342
1.1	-1.069660853
1.11	-1.03651915
1.12	-1.004410649
1.13	-0.972725069
1.14	-0.941651808
1.15	-0.911211695
1.16	-0.881437918
1.17	-0.852368877
1.18	-0.82404885
1.19	-0.796510533
1.2	-0.769789029
1.21	-0.743916951
1.22	-0.718919007
1.23	-0.694813299
1.24	-0.671611489
1.25	-0.649318734
1.26	-0.627933863
1.27	-0.607449845
1.28	-0.587854518
1.29	-0.569131307
1.3	-0.551259818
1.32	-0.517974967
1.34	-0.487783364
1.36	-0.460447319
1.38	-0.435471611
1.4	-0.413139052
1.42	-0.39293762
1.44	-0.374644633
1.46	-0.358058578
1.48	-0.342992598
1.5	-0.329277112
1.52	-0.3167585
1.54	-0.305100158
1.56	-0.294592718
1.58	-0.284902791
1.6	-0.275931264
1.62	-0.267583141
1.64	-0.259779326
1.66	-0.252447351
1.68	-0.245522861
1.7	-0.238948959
1.72	-0.232673952
1.74	-0.226658597
1.76	-0.220862917
1.78	-0.215254992
1.8	-0.209807897
1.82	-0.204311028
1.84	-0.199129751
1.86	-0.194053268
1.88	-0.189071802
1.9	-0.1841728
1.92	-0.179351722
1.94	-0.174604132
1.96	-0.169927301
1.98	-0.165319786
2	-0.160782329
2.02	-0.156314634
2.04	-0.151918126
2.06	-0.147594344
2.08	-0.14334484
2.1	-0.139171518
2.12	-0.135076063
2.14	-0.131060674
2.16	-0.127126295
2.18	-0.123274657
2.2	-0.119506837
2.22	-0.115823818
2.24	-0.112226298
2.26	-0.108714729
2.28	-0.105289324
2.3	-0.101949853
2.32	-0.098696594
2.34	-0.095528898
2.36	-0.092446187
2.38	-0.089447745
2.4	-0.086532854
2.42	-0.083700194
2.44	-0.080948632
2.46	-0.078278957
2.48	-0.07568699
2.5	-0.073172473
2.52	-0.070734046
2.54	-0.068370271
2.56	-0.066079631
2.58	-0.063860572
2.6	-0.06171152
2.62	-0.059630886
2.64	-0.057617089
2.68	-0.053783704
2.7	-0.051960906
2.72	-0.05019851
2.74	-0.048494875
2.76	-0.046848387
2.78	-0.045257414
2.8	-0.043720467
2.82	-0.042235992
2.84	-0.040802496
2.86	-0.039418468
2.88	-0.038082444
3	-0.030935479
3.1	-0.026108271
3.2	-0.022094589
3.3	-0.018761461
end


dipole  a a
name "<a|DMZ|a>"
spin   1.5 1.5
lambda  0 0
factor   1   (0, 1 or i)
type grid
values
       0.60       0.0702568400
       0.61       0.0735859800
       0.62       0.0768669100
       0.63       0.0801059400
       0.64       0.0833087600
       0.65       0.0864806500
       0.66       0.0896256400
       0.67       0.0927477200
       0.68       0.0958498700
       0.69       0.0989342400
       0.70       0.1020018700
       0.71       0.1050523300
       0.72       0.1080830400
       0.73       0.1110881900
       0.74       0.1140553500
       0.75       0.1169602900
       0.76       0.1197505100
       0.77       0.1223091500
       0.78       0.1245440000
       0.79       0.1269200700
       0.80       0.1296387000
       0.81       0.1325658000
       0.82       0.1356218700
       0.83       0.1387684700
       0.84       0.1419846600
       0.85       0.1452584200
       0.86       0.1485819700
       0.87       0.1519500400
       0.88       0.1553587600
       0.89       0.1588051700
       0.90       0.1622868300
       0.91       0.1658016200
       0.92       0.1693482200
       0.93       0.1729246100
       0.94       0.1765296600
       0.95       0.1801623000
       0.96       0.1838252000
       0.97       0.1875145800
       0.98       0.1912330500
       0.99       0.1949850500
       1.00       0.1987815000
       1.01       0.2026469600
       1.02       0.2066390800
       1.03       0.2108793600
       1.04       0.2154772100
       1.05       0.2202043100
       1.06       0.2248244400
       1.07       0.2293269300
       1.08       0.2337434200
       1.09       0.2380966300
       1.10       0.2423978100
       1.11       0.2465535300
       1.12       0.2508669200
       1.13       0.2550442300
       1.14       0.2591853100
       1.15       0.2632904100
       1.16       0.2673591500
       1.17       0.2713910100
       1.18       0.2753846300
       1.19       0.2793390200
       1.20       0.2832529300
       1.21       0.2871246400
       1.22       0.2909522900
       1.23       0.2947338300
       1.24       0.2984669400
       1.25       0.3021491100
       1.26       0.3057775800
       1.27       0.3093494000
       1.28       0.3128614400
       1.29       0.3163104000
       1.30       0.3196928100
       1.32       0.3262432500
       1.34       0.3324819300
       1.36       0.3383760100
       1.38       0.3438913100
       1.40       0.3489932900
       1.42       0.3536423200
       1.44       0.3578028900
       1.46       0.3614381700
       1.48       0.3645117500
       1.50       0.3669885400
       1.52       0.3688354400
       1.54       0.3700220900
       1.56       0.3705217000
       1.58       0.3703119300
       1.60       0.3693726100
       1.62       0.3676987800
       1.64       0.3652832900
       1.66       0.3621292400
       1.68       0.3582474200
       1.70       0.3536565900
       1.72       0.3483906700
       1.74       0.3424686100
       1.76       0.3359398100
       1.78       0.3288522600
       1.80       0.3212595000
       1.82       0.3132195400
       1.84       0.3047936300
       1.86       0.2960451000
       1.88       0.2870399200
       1.90       0.2778373200
       1.92       0.2685010400
       1.94       0.2590900900
       1.96       0.2496580600
       1.98       0.2402616400
       2.00       0.2309427000
       2.02       0.2217429400
       2.04       0.2126993000
       2.06       0.2038419900
       2.08       0.1951988200
       2.10       0.1867901600
       2.12       0.1786318500
       2.14       0.1707387300
       2.16       0.1631186400
       2.18       0.1557775100
       2.20       0.1487181300
       2.22       0.1419411000
       2.24       0.1354445800
       2.26       0.1292251500
       2.28       0.1232779100
       2.30       0.1175966300
       2.32       0.1121745300
       2.34       0.1070037000
       2.36       0.1020758200
       2.38       0.0973821700
       2.40       0.0929139800
       2.42       0.0886620900
       2.44       0.0846177000
       2.46       0.0807715300
       2.48       0.0771152400
       2.50       0.0736399000
       2.52       0.0703370200
       2.54       0.0671983400
       2.56       0.0642158700
       2.58       0.0613819300
       2.60       0.0586891200
       2.62       0.0561303500
       2.64       0.0536989000
       2.68       0.0491924900
       2.70       0.0471053700
       2.72       0.0451212200
       2.74       0.0432346100
       2.76       0.0414404200
       2.78       0.0397338800
       2.80       0.0381103900
       2.82       0.0365656500
       2.84       0.0350955400
       2.86       0.0336961900
       2.88       0.0323638800
       3.00       0.0255940500
       3.10       0.0212523800
       3.20       0.0178270800
       3.30       0.0150590000
end


INTENSITY
absorption
THRESH_INTES 1e-80
THRESH_LINE 1e-60
TEMPERATURE 2000
thresh_dipole 1e-9
linelist  CH_benchmark
J,  0.5,  2.5
freq-window    0,   50000
energy low   -0.001, 10000.00, upper   -0.00, 50000.0
END


FITTING off
JLIST    0.5  -  37.5
itmax  0
fit_factor  1e6
fit_type    linur  (dgelss)
fit_scale 0.01
THRESH_OBS-CALC 10 (linear_search 0)
output   fit-300
lock    2000   (cm-1)
robust  0.0001
energies                         ( state  v ilambda isigma omega    weight  comment <-  state v ilambda isigma  weigh
   0.5    1       1                 0 X       0   1    -0.5     0.5      14620543.134 1.0000E-06 162
   0.5    1       2        2731.80195 X       1   1    -0.5     0.5            42.937 1.0010E-03 14
   0.5    1       3        5337.59421 X       2   1    -0.5     0.5             6.372 5.0990E-03 8
   0.5    1       5       7818.768594 X       3   1    -0.5     0.5             0.964 1.1910E-02 1
   0.5    1       7       10176.43137 X       4   1    -0.5     0.5             2.171 5.2920E-03 1
   0.5   -1       1       0.110615029 X       0  -1     0.5    -0.5    5857235327.362 1.0000E-09 26
   0.5   -1       2        2731.90866 X       1  -1     0.5    -0.5            41.376 1.0010E-03 13
   0.5   -1       3       5337.700364 X       2  -1     0.5    -0.5             5.960 5.0990E-03 7
   0.5   -1       5       7818.889074 X       3  -1     0.5    -0.5             3.017 5.3850E-03 2
   1.5    1       1       17.88118136 X       0   1     0.5     1.5      16869632.907 3.5000E-07 41
   1.5    1       2       67.18406652 X       0   1    -0.5     0.5        172412.038 3.3400E-05 39
   1.5    1       3         2749.6527 X       1   1    -0.5     0.5            47.914 1.0000E-03 27
   1.5    1       4       2797.118406 X       1   1     0.5     1.5            52.971 1.0000E-03 33
   1.5    1       5       5355.362656 X       2   1    -0.5     0.5            29.884 1.4140E-03 21
   1.5    1       6       5401.044467 X       2   1     0.5     1.5            33.252 1.4140E-03 26
   1.5    1       9       7836.460989 X       3   1    -0.5     0.5            19.920 1.7320E-03 14
   1.5    1      10       7880.401008 X       3   1     0.5     1.5            17.658 1.7320E-03 11
   1.5    1      13       10193.99362 X       4   1    -0.5     0.5             9.221 2.0000E-03 4
   1.5    1      14       10236.25141 X       4   1     0.5     1.5            12.198 2.0000E-03 7
   1.5    1      17       12428.51778 X       5   1    -0.5     0.5             4.124 2.2360E-03 1
   1.5    1      18       12469.14789 X       5   1     0.5     1.5             5.832 2.2360E-03 2
   1.5   -1       1       17.90497227 X       0  -1    -0.5    -1.5      15134590.470 3.5000E-07 33
   1.5   -1       2       66.93933685 X       0  -1     0.5    -0.5        191273.982 3.3400E-05 48
   1.5   -1       3       2749.673953 X       1  -1     0.5    -0.5            47.914 1.0000E-03 27
   1.5   -1       4       2796.886026 X       1  -1    -0.5    -1.5            50.506 1.0000E-03 30
   1.5   -1       5        5355.37951 X       2  -1     0.5    -0.5            31.275 1.4140E-03 23
   1.5   -1       6       5400.825154 X       2  -1    -0.5    -1.5            31.948 1.4140E-03 24
   1.5   -1       9       7836.464338 X       3  -1     0.5    -0.5            19.196 1.7320E-03 13
   1.5   -1      10       7880.188765 X       3  -1    -0.5    -1.5            19.196 1.7320E-03 13
   1.5   -1      13       10194.00596 X       4  -1     0.5    -0.5             9.221 2.0000E-03 4
   1.5   -1      14       10236.05899 X       4  -1    -0.5    -1.5            11.293 2.0000E-03 6
   1.5   -1      17       12428.51678 X       5  -1     0.5    -0.5             4.124 2.2360E-03 1
   1.5   -1      18       12468.96891 X       5  -1    -0.5    -1.5             5.832 2.2360E-03 2
   2.5    1       1       73.31218942 X       0   1    -0.5     0.5         29099.026 1.8320E-04 41
   2.5    1       2       153.1951468 X       0   1     0.5     1.5        129508.713 4.7240E-05 54
   2.5    1       3       2803.010646 X       1   1    -0.5     0.5            50.642 1.0000E-03 37
   2.5    1       4       2879.911427 X       1   1     0.5     1.5            52.603 1.0010E-03 40
   2.5    1       5       5406.673857 X       2   1    -0.5     0.5            30.023 1.4140E-03 26
   2.5    1       6       5480.635426 X       2   1     0.5     1.5            31.156 1.4140E-03 28
   2.5    1       9       7885.738735 X       3   1    -0.5     0.5            20.394 1.7320E-03 18
   2.5    1      10       7956.815939 X       3   1     0.5     1.5            19.228 1.7320E-03 16
   2.5    1      13       10241.26038 X       4   1    -0.5     0.5            13.164 2.0000E-03 10
   2.5    1      14       10309.48045 X       4   1     0.5     1.5            11.774 2.0000E-03 8
   2.5    1      17       12473.80388 X       5   1    -0.5     0.5             5.266 2.2360E-03 2
   2.5    1      18        12539.1971 X       5   1     0.5     1.5             5.266 2.2360E-03 2
   2.5   -1       1       73.15009603 X       0  -1    -0.5    -1.5         35191.246 1.7060E-04 52
   2.5   -1       2       153.6877482 X       0  -1     0.5    -0.5        125833.209 4.7250E-05 51
   2.5   -1       3       2802.856581 X       1  -1     0.5    -0.5            50.642 1.0000E-03 37
   2.5   -1       4       2880.383389 X       1  -1    -0.5    -1.5            53.256 1.0010E-03 41
   2.5   -1       5       5406.528774 X       2  -1     0.5    -0.5            31.156 1.4140E-03 28
   2.5   -1       6       5481.093273 X       2  -1    -0.5    -1.5            32.783 1.4140E-03 31
   2.5   -1       9       7885.599103 X       3  -1     0.5    -0.5            19.228 1.7320E-03 16
   2.5   -1      10       7957.239619 X       3  -1    -0.5    -1.5            17.986 1.7320E-03 14
   2.5   -1      13       10241.13918 X       4  -1     0.5    -0.5            13.164 2.0000E-03 10
   2.5   -1      14        10309.9002 X       4  -1    -0.5    -1.5            11.774 2.0000E-03 8
   2.5   -1      17       12473.64858 X       5  -1     0.5    -0.5             5.266 2.2360E-03 2
   2.5   -1      18       12539.58138 X       5  -1    -0.5    -1.5             5.266 2.2360E-03 2
   3.5    1       1       157.3925557 X       0   1     0.5     1.5         33871.029 1.6730E-04 53
   3.5    1       2       267.6612597 X       0   1    -0.5     0.5         39779.658 1.4110E-04 52
   3.5    1       3       2883.946614 X       1   1    -0.5     0.5            48.741 1.0100E-03 40
   3.5    1       4       2990.087024 X       1   1     0.5     1.5            47.934 1.0010E-03 38
   3.5    1       5       5484.494982 X       2   1    -0.5     0.5            29.644 1.4140E-03 29
   3.5    1       6        5586.55649 X       2   1     0.5     1.5            31.118 1.4150E-03 32
   3.5    1       9       7960.470188 X       3   1    -0.5     0.5            18.529 1.7320E-03 17
   3.5    1      10       8058.506733 X       3   1     0.5     1.5            17.405 1.7320E-03 15
   3.5    1      13       10312.92446 X       4   1    -0.5     0.5            11.676 2.0000E-03 9
   3.5    1      14       10406.94871 X       4   1     0.5     1.5            10.297 2.0000E-03 7
   3.5    1      17       12542.39687 X       5   1    -0.5     0.5             6.962 2.2360E-03 4
   3.5    1      18       12632.45304 X       5   1     0.5     1.5             4.923 2.2360E-03 2
   3.5   -1       1       157.7687029 X       0  -1     0.5    -0.5         36010.126 1.4500E-04 45
   3.5   -1       2        266.846491 X       0  -1    -0.5    -1.5         40057.576 1.3740E-04 50
   3.5   -1       3       2884.308706 X       1  -1     0.5    -0.5            47.460 1.0110E-03 38
   3.5   -1       4       2989.303691 X       1  -1    -0.5    -1.5            48.561 1.0010E-03 39
   3.5   -1       5       5484.842611 X       2  -1     0.5    -0.5            31.140 1.4140E-03 32
   3.5   -1       6       5585.806864 X       2  -1    -0.5    -1.5            29.623 1.4150E-03 29
   3.5   -1       9       7960.798256 X       3  -1     0.5    -0.5            16.757 1.7380E-03 14
   3.5   -1      10       8057.776226 X       3  -1    -0.5    -1.5            17.976 1.7320E-03 16
   3.5   -1      13       10313.24016 X       4  -1     0.5    -0.5            11.676 2.0000E-03 9
   3.5   -1      14       10406.27719 X       4  -1    -0.5    -1.5            11.008 2.0000E-03 8
   3.5   -1      17       12542.68127 X       5  -1     0.5    -0.5             6.962 2.2360E-03 4
   3.5   -1      18       12631.77699 X       5  -1    -0.5    -1.5             4.923 2.2360E-03 2
   4.5    1       1       270.6955292 X       0   1    -0.5     0.5         32238.825 1.4880E-04 42
   4.5    1       2       408.2266712 X       0   1     0.5     1.5          3699.015 1.4150E-03 50
   4.5    1       3       2993.006141 X       1   1    -0.5     0.5            45.769 1.0100E-03 39
   4.5    1       4       3125.382339 X       1   1     0.5     1.5            45.814 1.0090E-03 39
   4.5    1       5        5589.35105 X       2   1    -0.5     0.5            28.983 1.4220E-03 31
   4.5    1       6       5716.625503 X       2   1     0.5     1.5            27.182 1.4150E-03 27
   4.5    1       9       8061.146131 X       3   1    -0.5     0.5            17.095 1.7320E-03 16
   4.5    1      10       8183.375038 X       3   1     0.5     1.5            17.621 1.7320E-03 17
   4.5    1      13       10409.43567 X       4   1    -0.5     0.5             9.792 2.0000E-03 7
   4.5    1      14       10526.65193 X       4   1     0.5     1.5             9.792 2.0000E-03 7
   4.5    1      17       12634.74621 X       5   1    -0.5     0.5             6.621 2.2360E-03 4
   4.5    1      18       12746.97739 X       5   1     0.5     1.5             3.310 2.2360E-03 1
   4.5   -1       1       270.0311436 X       0  -1    -0.5    -1.5          3643.812 1.4220E-03 49
   4.5   -1       2       409.4377359 X       0  -1     0.5    -0.5         34997.613 1.4500E-04 47
   4.5   -1       3       2992.363962 X       1  -1     0.5    -0.5            48.566 1.0110E-03 44
   4.5   -1       4       3126.546768 X       1  -1    -0.5    -1.5            45.178 1.0100E-03 38
   4.5   -1       5       5588.735904 X       2  -1     0.5    -0.5            29.446 1.4220E-03 32
   4.5   -1       6       5717.749701 X       2  -1    -0.5    -1.5            29.592 1.4150E-03 32
   4.5   -1       9       8060.558087 X       3  -1     0.5    -0.5            18.629 1.7320E-03 19
   4.5   -1      10       8184.444811 X       3  -1    -0.5    -1.5            18.132 1.7320E-03 18
   4.5   -1      13        10408.8724 X       4  -1     0.5    -0.5             8.276 2.0000E-03 5
   4.5   -1      14       10527.68268 X       4  -1    -0.5    -1.5             9.792 2.0000E-03 7
   4.5   -1      17       12634.20438 X       5  -1     0.5    -0.5             6.621 2.2360E-03 4
   4.5   -1      18       12747.92911 X       5  -1    -0.5    -1.5             3.310 2.2360E-03 1
   5.5    1       1       410.7850282 X       0   1     0.5     1.5          3571.190 1.4220E-03 51
   5.5    1       2       578.9805674 X       0   1    -0.5     0.5          3243.083 1.4210E-03 42
   5.5    1       3       3127.847308 X       1   1    -0.5     0.5            24.205 1.7380E-03 35
   5.5    1       4       3289.722967 X       1   1     0.5     1.5            41.053 1.0100E-03 34
   5.5    1       5       5718.983566 X       2   1    -0.5     0.5            26.929 1.4220E-03 29
   5.5    1       6       5874.610129 X       2   1     0.5     1.5            26.003 1.4210E-03 27
   5.5    1       9        8185.61334 X       3   1    -0.5     0.5            16.366 1.7380E-03 16
   5.5    1      10       8335.039742 X       3   1     0.5     1.5            14.795 1.7330E-03 13
   5.5    1      13        10528.7489 X       4   1    -0.5     0.5            10.666 2.0000E-03 9
   5.5    1      14       10672.01287 X       4   1     0.5     1.5             9.407 2.0000E-03 7
   5.5    1      17       12748.58755 X       5   1    -0.5     0.5             0.010 7.0710E-01 1
   5.5   -1       1       411.8137615 X       0  -1     0.5    -0.5          3162.699 1.4220E-03 40
   5.5   -1       2       577.3023896 X       0  -1    -0.5    -1.5          3430.697 1.4210E-03 47
   5.5   -1       3       3128.834518 X       1  -1     0.5    -0.5            42.201 1.0110E-03 36
   5.5   -1       4       3288.110059 X       1  -1    -0.5    -1.5            24.275 1.7330E-03 35
   5.5   -1       5       5719.933127 X       2  -1     0.5    -0.5            27.390 1.4220E-03 30
   5.5   -1       6       5873.062817 X       2  -1    -0.5    -1.5            25.516 1.4210E-03 26
   5.5   -1       9       8186.524303 X       3  -1     0.5    -0.5            17.834 1.7380E-03 19
   5.5   -1      10       8333.546551 X       3  -1    -0.5    -1.5            16.413 1.7330E-03 16
   5.5   -1      13       10529.62155 X       4  -1     0.5    -0.5            10.666 2.0000E-03 9
   5.5   -1      14       10670.58474 X       4  -1    -0.5    -1.5            10.056 2.0000E-03 8
   5.5   -1      17       12749.73667 X       5  -1     0.5    -0.5             3.180 2.2360E-03 1
   5.5   -1      18       12884.62593 X       5  -1    -0.5    -1.5             0.071 1.0000E-01 1
   6.5    1       1        580.896559 X       0   1    -0.5     0.5          3244.322 1.4220E-03 45
   6.5    1       2        773.921513 X       0   1     0.5     1.5          3350.722 1.4220E-03 48
   6.5    1       3       3291.567383 X       1   1    -0.5     0.5            22.384 1.7380E-03 32
   6.5    1       4       3477.335795 X       1   1     0.5     1.5            22.397 1.7370E-03 32
   6.5    1       5        5876.37668 X       2   1    -0.5     0.5            24.661 1.4220E-03 26
   6.5    1       6       6054.952133 X       2   1     0.5     1.5            16.121 2.0010E-03 22
   6.5    1       9       8336.713058 X       3   1    -0.5     0.5            16.315 1.7380E-03 17
   6.5    1      10       8508.158131 X       3   1     0.5     1.5            14.275 1.7370E-03 13
   6.5    1      13        10673.5864 X       4   1    -0.5     0.5             9.071 2.0060E-03 7
   6.5    1      14       10837.93457 X       4   1     0.5     1.5             9.721 2.0010E-03 8
   6.5    1      17       12887.47755 X       5   1    -0.5     0.5             5.327 2.2360E-03 3
   6.5    1      18       13044.71764 X       5   1     0.5     1.5             4.350 2.2360E-03 2
   6.5   -1       1       579.4334876 X       0  -1     0.5    -0.5          3350.722 1.4220E-03 48
   6.5   -1       2       776.1367382 X       0  -1    -0.5    -1.5          3020.300 1.4220E-03 39
   6.5   -1       3       3290.158851 X       1  -1     0.5    -0.5            22.731 1.7380E-03 33
   6.5   -1       4       3479.465477 X       1  -1    -0.5    -1.5            22.032 1.7380E-03 31
   6.5   -1       5       5875.029525 X       2  -1     0.5    -0.5            17.490 2.0050E-03 26
   6.5   -1       6       6057.000618 X       2  -1    -0.5    -1.5            23.693 1.4220E-03 24
   6.5   -1       9       8335.412768 X       3  -1     0.5    -0.5            14.806 1.7380E-03 14
   6.5   -1      10       8510.125903 X       3  -1    -0.5    -1.5            15.325 1.7380E-03 15
   6.5   -1      13       10672.35046 X       4  -1     0.5    -0.5             9.075 2.0050E-03 7
   6.5   -1      14        10839.8315 X       4  -1    -0.5    -1.5             8.419 2.0010E-03 6
   6.5   -1      17        12886.2769 X       5  -1     0.5    -0.5             6.151 2.2360E-03 4
   6.5   -1      18       13046.51687 X       5  -1    -0.5    -1.5             5.327 2.2360E-03 3
   7.5    1       1       775.7390155 X       0   1    -0.5     0.5          2260.749 2.0050E-03 46
   7.5    1       2       1000.688043 X       0   1     0.5     1.5          1999.975 2.0050E-03 36
   7.5    1       3       3479.087756 X       1   1    -0.5     0.5            21.753 1.7380E-03 32
   7.5    1       4       3695.561439 X       1   1     0.5     1.5            20.348 1.7380E-03 28
   7.5    1       5       6056.622086 X       2   1    -0.5     0.5            16.322 2.0060E-03 24
   7.5    1       6       6264.707937 X       2   1     0.5     1.5            13.744 2.0050E-03 17
   7.5    1       9       8509.757093 X       3   1    -0.5     0.5            10.753 2.2410E-03 13
   7.5    1      10       8709.501363 X       3   1     0.5     1.5            12.160 1.7380E-03 10
   7.5    1      13       10839.42848 X       4   1    -0.5     0.5             9.995 2.0060E-03 9
   7.5    1      14       11030.88358 X       4   1     0.5     1.5             9.428 2.0050E-03 8
   7.5    1      16       13046.11546 X       5   1    -0.5     0.5             5.965 2.2410E-03 4
   7.5    1      18        13229.2817 X       5   1     0.5     1.5             5.175 2.2370E-03 3
   7.5   -1       1       777.7069548 X       0  -1     0.5    -0.5          2185.786 2.0050E-03 43
   7.5   -1       2       997.8670462 X       0  -1    -0.5    -1.5          2185.786 2.0050E-03 43
   7.5   -1       3       3480.975748 X       1  -1     0.5    -0.5            21.410 1.7380E-03 31
   7.5   -1       4       3692.848387 X       1  -1    -0.5    -1.5            20.348 1.7380E-03 28
   7.5   -1       5       6058.448667 X       2  -1     0.5    -0.5            15.986 2.0050E-03 23
   7.5   -1       6       6262.096902 X       2  -1    -0.5    -1.5            13.744 2.0050E-03 17
   7.5   -1       9       8511.492614 X       3  -1     0.5    -0.5            14.893 1.7380E-03 15
   7.5   -1      10       8706.992166 X       3  -1    -0.5    -1.5             8.450 2.2370E-03 8
   7.5   -1      13        10841.1073 X       4  -1     0.5    -0.5             8.819 2.0050E-03 7
   7.5   -1      14       11028.47611 X       4  -1    -0.5    -1.5             8.819 2.0050E-03 7
   7.5   -1      17        13047.7193 X       5  -1     0.5    -0.5             5.165 2.2410E-03 3
   7.5   -1      18       13226.96467 X       5  -1    -0.5    -1.5             5.175 2.2370E-03 3
   8.5    1       1       1001.989068 X       0   1    -0.5     0.5          2002.982 2.0060E-03 38
   8.5    1       2       1248.890931 X       0   1     0.5     1.5          2030.178 2.0050E-03 39
   8.5    1       3       3696.810669 X       1   1    -0.5     0.5            15.391 2.2410E-03 28
   8.5    1       4       3934.391202 X       1   1     0.5     1.5            14.255 2.2400E-03 24
   8.5    1       5       6265.898206 X       2   1    -0.5     0.5            14.163 2.0060E-03 19
   8.5    1       6       6494.244191 X       2   1     0.5     1.5            13.004 2.0050E-03 16
   8.5    1       9       8710.627351 X       3   1    -0.5     0.5             9.647 2.2410E-03 11
   8.5    1      10        8929.79514 X       3   1     0.5     1.5             7.699 2.2400E-03 7
   8.5    1      13       11031.93603 X       4   1    -0.5     0.5             9.190 2.0060E-03 8
   8.5    1      14       11241.97173 X       4   1     0.5     1.5             7.525 2.4500E-03 8
   8.5    1      17       13230.24919 X       5   1    -0.5     0.5             5.038 2.2410E-03 3
   8.5    1      18       13431.13321 X       5   1     0.5     1.5             5.040 2.2400E-03 3
   8.5   -1       1       999.4487115 X       0  -1     0.5    -0.5          2179.674 2.0060E-03 45
   8.5   -1       2       1252.377713 X       0  -1    -0.5    -1.5          1950.532 2.0050E-03 36
   8.5   -1       3       3694.364258 X       1  -1     0.5    -0.5            15.931 2.2410E-03 30
   8.5   -1       4       3937.746997 X       1  -1    -0.5    -1.5            15.120 2.2400E-03 27
   8.5   -1       5       6263.550724 X       2  -1     0.5    -0.5            14.163 2.0060E-03 19
   8.5   -1       6       6497.477152 X       2  -1    -0.5    -1.5            11.721 2.0050E-03 13
   8.5   -1       9       8708.365746 X       3  -1     0.5    -0.5             9.198 2.2410E-03 10
   8.5   -1      10       8932.896616 X       3  -1    -0.5    -1.5             8.230 2.2400E-03 8
   8.5   -1      13       11029.78144 X       4  -1     0.5    -0.5             7.513 2.4540E-03 8
   8.5   -1      14       11244.95287 X       4  -1    -0.5    -1.5             7.963 2.0050E-03 6
   8.5   -1      16       13228.18778 X       5  -1     0.5    -0.5             5.038 2.2410E-03 3
   8.5   -1      18       13433.99128 X       5  -1    -0.5    -1.5             5.038 2.2410E-03 3
   9.5    1       1       1250.281306 X       0   1    -0.5     0.5          1703.393 2.4540E-03 43
   9.5    1       2       1530.906321 X       0   1     0.5     1.5          1470.052 2.4530E-03 32
   9.5    1       3       3935.727166 X       1   1    -0.5     0.5            14.504 2.2410E-03 26
   9.5    1       4       4205.741647 X       1   1     0.5     1.5            15.052 2.2410E-03 28
   9.5    1       5       6495.519552 X       2   1    -0.5     0.5            11.021 2.4540E-03 18
   9.5    1       6       6755.009732 X       2   1     0.5     1.5            11.025 2.4530E-03 18
   9.5    1       9       8931.011114 X       3   1    -0.5     0.5             8.046 2.2410E-03 8
   9.5    1      10       9180.056026 X       3   1     0.5     1.5             6.361 2.2410E-03 5
   9.5    1      13        11243.1088 X       4   1    -0.5     0.5             6.873 2.4540E-03 7
   9.5    1      14       11481.72726 X       4   1     0.5     1.5             6.876 2.4530E-03 7
   9.5    1      16       13432.20384 X       5   1    -0.5     0.5             4.811 2.6500E-03 4
   9.5    1      18       13660.41937 X       5   1     0.5     1.5             4.927 2.2410E-03 3
   9.5   -1       1       1253.455885 X       0  -1     0.5    -0.5          1601.299 2.4540E-03 38
   9.5   -1       2       1526.679852 X       0  -1    -0.5    -1.5          1601.952 2.4530E-03 38
   9.5   -1       3       3938.789004 X       1  -1     0.5    -0.5            15.052 2.2410E-03 28
   9.5   -1       4       4201.679559 X       1  -1    -0.5    -1.5            14.781 2.2410E-03 27
   9.5   -1       5       6498.467894 X       2  -1     0.5    -0.5            10.061 2.4540E-03 15
   9.5   -1       6       6751.105623 X       2  -1    -0.5    -1.5            10.395 2.4530E-03 16
   9.5   -1       9       8933.832602 X       3  -1     0.5    -0.5             7.526 2.2410E-03 7
   9.5   -1      10       9176.295536 X       3  -1    -0.5    -1.5             6.968 2.2410E-03 6
   9.5   -1      13       11245.81959 X       4  -1     0.5    -0.5             6.873 2.4540E-03 7
   9.5   -1      14       11478.13118 X       4  -1    -0.5    -1.5             5.811 2.4530E-03 5
   9.5   -1      17       13434.79133 X       5  -1     0.5    -0.5             5.689 2.2410E-03 4
   9.5   -1      18       13656.94833 X       5  -1    -0.5    -1.5             4.173 2.6460E-03 3
  10.5    1       1        1531.79569 X       0   1    -0.5     0.5          1484.660 2.4540E-03 34
  10.5    1       2       1830.928135 X       0   1     0.5     1.5          1506.335 2.4540E-03 35
  10.5    1       3       4206.600205 X       1   1    -0.5     0.5            12.023 2.6500E-03 26
  10.5    1       4       4494.382158 X       1   1     0.5     1.5            11.555 2.6490E-03 24
  10.5    1       5       6755.831799 X       2   1    -0.5     0.5            11.099 2.4540E-03 19
  10.5    1       6       7032.357979 X       2   1     0.5     1.5             9.861 2.4540E-03 15
  10.5    1       9       9180.824017 X       3   1    -0.5     0.5             5.776 2.6500E-03 6
  10.5    1      10       9446.165582 X       3   1     0.5     1.5             5.274 2.6490E-03 5
  10.5    1      13       11482.44548 X       4   1    -0.5     0.5             5.693 2.4540E-03 5
  10.5    1      14       11736.65054 X       4   1     0.5     1.5             5.092 2.4540E-03 4
  10.5    1      17       13661.07928 X       5   1    -0.5     0.5             0.088 1.0000E-01 2
  10.5    1      18       13904.08358 X       5   1     0.5     1.5             3.336 2.6490E-03 2
  10.5   -1       1       1527.921431 X       0  -1     0.5    -0.5          1630.345 2.4540E-03 41
  10.5   -1       2       1835.929006 X       0  -1    -0.5    -1.5          1394.595 2.4540E-03 30
  10.5   -1       3       4202.866295 X       1  -1     0.5    -0.5            11.789 2.6500E-03 25
  10.5   -1       4       4499.201975 X       1  -1    -0.5    -1.5            12.027 2.6490E-03 26
  10.5   -1       5       6752.243446 X       2  -1     0.5    -0.5             9.527 2.4540E-03 14
  10.5   -1       6       7036.998683 X       2  -1    -0.5    -1.5             8.820 2.4540E-03 12
  10.5   -1       9       9177.361574 X       3  -1     0.5    -0.5             5.272 2.6500E-03 5
  10.5   -1      10        9450.61412 X       3  -1    -0.5    -1.5             5.274 2.6490E-03 5
  10.5   -1      13       11479.14544 X       4  -1     0.5    -0.5             7.202 2.4540E-03 8
  10.5   -1      14       11740.92703 X       4  -1    -0.5    -1.5             5.092 2.4540E-03 4
  10.5   -1      16        13657.8885 X       5  -1     0.5    -0.5             4.084 2.6500E-03 3
  10.5   -1      17       13908.16756 X       5  -1    -0.5    -1.5             4.085 2.6490E-03 3
  11.5    1       1        1832.03314 X       0   1    -0.5     0.5          1263.300 2.8320E-03 34
  11.5    1       2       2167.104313 X       0   1     0.5     1.5           660.830 5.0000E-03 29
  11.5    1       3       4495.444672 X       1   1    -0.5     0.5            10.355 2.6500E-03 20
  11.5    1       4       4817.766258 X       1   1     0.5     1.5            10.610 2.6500E-03 21
  11.5    1       5       7033.375177 X       2   1    -0.5     0.5             8.666 2.8320E-03 16
  11.5    1       6       7343.073848 X       2   1     0.5     1.5             7.505 2.8320E-03 12
  11.5    1       9       9447.133905 X       3   1    -0.5     0.5             5.177 2.6500E-03 5
  11.5    1      10       9744.266683 X       3   1     0.5     1.5             4.631 2.6500E-03 4
  11.5    1      13       11737.53457 X       4   1    -0.5     0.5             4.845 2.8320E-03 5
  11.5    1      14       12022.15412 X       4   1     0.5     1.5             4.333 2.8320E-03 4
  11.5    1      16       13904.92684 X       5   1    -0.5     0.5             4.010 2.6500E-03 3
  11.5    1      17       14176.98013 X       5   1     0.5     1.5             4.010 2.6500E-03 3
  11.5   -1       1       1836.665264 X       0  -1     0.5    -0.5           917.203 3.6640E-03 30
  11.5   -1       2       2161.252949 X       0  -1    -0.5    -1.5          1186.664 2.8320E-03 30
  11.5   -1       3       4499.907089 X       1  -1     0.5    -0.5            11.577 2.6500E-03 25
  11.5   -1       4       4812.142905 X       1  -1    -0.5    -1.5            11.343 2.6500E-03 24
  11.5   -1       5       7037.669231 X       2  -1     0.5    -0.5             7.186 2.8320E-03 11
  11.5   -1       6       7337.659155 X       2  -1    -0.5    -1.5             7.186 2.8320E-03 11
  11.5   -1       9       9451.255925 X       3  -1     0.5    -0.5             5.177 2.6500E-03 5
  11.5   -1      10       9739.060979 X       3  -1    -0.5    -1.5             5.177 2.6500E-03 5
  11.5   -1      13       11741.50902 X       4  -1     0.5    -0.5             4.845 2.8320E-03 5
  11.5   -1      14       12017.17578 X       4  -1    -0.5    -1.5             3.753 2.8320E-03 3
  11.5   -1      16       13908.70998 X       5  -1     0.5    -0.5             3.274 2.6500E-03 2
  11.5   -1      18       14172.20764 X       5  -1    -0.5    -1.5             4.631 2.6500E-03 4
  12.5    1       1       2167.697608 X       0   1    -0.5     0.5          1107.150 2.8320E-03 27
  12.5    1       2       2517.284724 X       0   1     0.5     1.5          1043.831 2.8320E-03 24
  12.5    1       3       4818.346175 X       1   1    -0.5     0.5             6.741 3.7980E-03 18
  12.5    1       4       5154.576276 X       1   1     0.5     1.5             8.525 3.0030E-03 18
  12.5    1       5       7343.619014 X       2   1    -0.5     0.5             7.682 2.8320E-03 13
  12.5    1       6       7666.614899 X       2   1     0.5     1.5             6.738 2.8320E-03 10
  12.5    1       9       9744.781231 X       3   1    -0.5     0.5             3.479 3.0040E-03 3
  12.5    1      10       10054.61115 X       3   1     0.5     1.5             4.493 3.0030E-03 5
  12.5    1      13       12022.64193 X       4   1    -0.5     0.5             4.764 2.8320E-03 5
  12.5    1      14       12319.33198 X       4   1     0.5     1.5             3.691 2.8320E-03 3
  12.5    1      16       14177.40762 X       5   1    -0.5     0.5             3.479 3.0040E-03 3
  12.5    1      18       14460.94768 X       5   1     0.5     1.5             2.842 3.0030E-03 2
  12.5   -1       1       2162.248225 X       0  -1     0.5    -0.5           614.508 5.1960E-03 28
  12.5   -1       2       2524.018689 X       0  -1    -0.5    -1.5          1107.150 2.8320E-03 27
  12.5   -1       3       4813.099959 X       1  -1     0.5    -0.5             9.841 3.0040E-03 24
  12.5   -1       4       5161.074642 X       1  -1    -0.5    -1.5             4.734 5.0990E-03 16
  12.5   -1       5       7338.571625 X       2  -1     0.5    -0.5             7.381 2.8320E-03 12
  12.5   -1       6       7672.848253 X       2  -1    -0.5    -1.5             7.682 2.8320E-03 13
  12.5   -1       9       9739.936177 X       3  -1     0.5    -0.5             4.017 3.0040E-03 4
  12.5   -1      10       10060.61385 X       3  -1    -0.5    -1.5             4.493 3.0030E-03 5
  12.5   -1      13        12017.9799 X       4  -1     0.5    -0.5             4.261 2.8320E-03 4
  12.5   -1      14       12325.07668 X       4  -1    -0.5    -1.5             4.261 2.8320E-03 4
  12.5   -1      16       14172.94967 X       5  -1     0.5    -0.5             4.017 3.0040E-03 4
  12.5   -1      17       14466.43902 X       5  -1    -0.5    -1.5             2.842 3.0030E-03 2
  13.5    1       1       2518.177709 X       0   1    -0.5     0.5           975.224 3.1660E-03 27
  13.5    1       2       2906.257997 X       0   1     0.5     1.5           548.439 5.1960E-03 23
  13.5    1       3       5155.440894 X       1   1    -0.5     0.5             4.805 5.0990E-03 17
  13.5    1       4        5528.66486 X       1   1     0.5     1.5             8.392 3.0040E-03 18
  13.5    1       5       7667.442521 X       2   1    -0.5     0.5             6.225 3.1660E-03 11
  13.5    1       6       8025.931646 X       2   1     0.5     1.5             3.431 5.1960E-03 9
  13.5    1       9       10055.40162 X       3   1    -0.5     0.5             3.956 3.0040E-03 4
  13.5    1      10       10399.22425 X       3   1     0.5     1.5             3.956 3.0040E-03 4
  13.5    1      12       12320.08518 X       4   1    -0.5     0.5             3.251 3.1660E-03 3
  13.5    1      14       12649.28685 X       4   1     0.5     1.5             2.655 3.1650E-03 2
  13.5    1      16        14461.6088 X       5   1    -0.5     0.5             2.797 3.0040E-03 2
  13.5    1      17       14776.14578 X       5   1     0.5     1.5             2.797 3.0040E-03 2
  13.5   -1       1       2524.490366 X       0  -1     0.5    -0.5           582.196 5.0000E-03 24
  13.5   -1       2        2898.56618 X       0  -1    -0.5    -1.5           569.937 5.0000E-03 23
  13.5   -1       3       5161.519722 X       1  -1     0.5    -0.5             8.622 3.0040E-03 19
  13.5   -1       4       5521.273915 X       1  -1    -0.5    -1.5             8.156 3.0040E-03 17
  13.5   -1       5       7673.286189 X       2  -1     0.5    -0.5             5.662 3.9270E-03 14
  13.5   -1       6       8018.819284 X       2  -1    -0.5    -1.5             5.937 3.1650E-03 10
  13.5   -1       9       10061.01701 X       3  -1     0.5    -0.5             4.423 3.0040E-03 5
  13.5   -1      10        10392.4079 X       3  -1    -0.5    -1.5             4.423 3.0040E-03 5
  13.5   -1      13       12325.44019 X       4  -1     0.5    -0.5             0.017 7.0710E-01 4
  13.5   -1      14       12642.73215 X       4  -1    -0.5    -1.5             2.655 3.1650E-03 2
  13.5   -1      16       14466.78663 X       5  -1     0.5    -0.5             2.797 3.0040E-03 2
  13.5   -1      18       14769.88938 X       5  -1    -0.5    -1.5             2.797 3.0040E-03 2
  14.5    1       1       2906.608182 X       0   1    -0.5     0.5           549.500 5.0000E-03 22
  14.5    1       2       3304.676167 X       0   1     0.5     1.5           867.814 3.1660E-03 22
  14.5    1       3        5529.01174 X       1   1    -0.5     0.5             4.737 5.0990E-03 17
  14.5    1       4       5911.771987 X       1   1     0.5     1.5             4.595 5.0990E-03 16
  14.5    1       5       8026.255783 X       2   1    -0.5     0.5             6.136 3.1660E-03 11
  14.5    1       6       8393.835907 X       2   1     0.5     1.5             5.551 3.1660E-03 9
  14.5    1       9       10399.53819 X       3   1    -0.5     0.5             3.541 4.0520E-03 6
  14.5    1      10       10752.00628 X       3   1     0.5     1.5             3.530 3.3190E-03 4
  14.5    1      13       12649.57011 X       4   1    -0.5     0.5             3.205 3.1660E-03 3
  14.5    1      14        12986.9449 X       4   1     0.5     1.5             2.617 3.1660E-03 2
  14.5    1      16       14776.41609 X       5   1    -0.5     0.5             0.012 7.0710E-01 2
  14.5   -1       1       2899.384844 X       0  -1     0.5    -0.5           549.500 5.0000E-03 22
  14.5   -1       2       3313.319567 X       0  -1    -0.5    -1.5           847.862 3.1660E-03 21
  14.5   -1       3        5522.06192 X       1  -1     0.5    -0.5             7.486 3.3200E-03 18
  14.5   -1       4       5920.112726 X       1  -1    -0.5    -1.5             4.874 5.0990E-03 18
  14.5   -1       5       8019.563899 X       2  -1     0.5    -0.5             3.565 5.1960E-03 10
  14.5   -1       6       8401.847859 X       2  -1    -0.5    -1.5             6.671 3.1660E-03 13
  14.5   -1       9       10393.11852 X       3  -1     0.5    -0.5             3.529 3.3200E-03 4
  14.5   -1      10       10759.70065 X       3  -1    -0.5    -1.5             2.711 5.2920E-03 6
  14.5   -1      12       12643.41262 X       4  -1     0.5    -0.5             2.617 3.1660E-03 2
  14.5   -1      14       12994.31225 X       4  -1    -0.5    -1.5             2.617 3.1660E-03 2
  14.5   -1      16       14770.52288 X       5  -1     0.5    -0.5             2.495 3.3200E-03 2
  15.5    1       1       3305.412398 X       0   1    -0.5     0.5           763.993 3.4670E-03 21
  15.5    1       2       3744.789626 X       0   1     0.5     1.5           529.753 5.0000E-03 21
  15.5    1       3       5912.490768 X       1   1    -0.5     0.5             4.241 5.0990E-03 14
  15.5    1       4       6334.912211 X       1   1     0.5     1.5             6.964 3.3200E-03 16
  15.5    1       5       8394.524918 X       2   1    -0.5     0.5             5.002 3.4670E-03 9
  15.5    1       6       8800.140724 X       2   1     0.5     1.5             3.337 5.1960E-03 9
  15.5    1       9        10752.6509 X       3   1    -0.5     0.5             2.442 5.2920E-03 5
  15.5    1      10       11141.54386 X       3   1     0.5     1.5             3.482 3.3200E-03 4
  15.5    1      12       12987.55852 X       4   1    -0.5     0.5             3.334 3.4670E-03 4
  15.5    1      14       13359.72465 X       4   1     0.5     1.5             1.859 5.3850E-03 3
  15.5   -1       1       3313.580448 X       0  -1     0.5    -0.5           490.456 5.0000E-03 18
  15.5   -1       2       3735.106032 X       0  -1    -0.5    -1.5           529.753 5.0000E-03 21
  15.5   -1       3       5920.368895 X       1  -1     0.5    -0.5             4.534 5.0990E-03 16
  15.5   -1       4       6325.618219 X       1  -1    -0.5    -1.5             6.277 3.3200E-03 13
  15.5   -1       5       8402.079746 X       2  -1     0.5    -0.5             3.689 5.1960E-03 11
  15.5   -1       6       8791.174995 X       2  -1    -0.5    -1.5             3.337 5.1960E-03 9
  15.5   -1       9       10759.91837 X       3  -1     0.5    -0.5             4.924 3.3200E-03 8
  15.5   -1      10       11132.94891 X       3  -1    -0.5    -1.5             3.893 3.3200E-03 5
  15.5   -1      13       12994.53019 X       4  -1     0.5    -0.5             2.770 4.1740E-03 4
  15.5   -1      14       13351.48428 X       4  -1    -0.5    -1.5             2.358 3.4670E-03 2
  16.5    1       1        3744.94695 X       0   1    -0.5     0.5           523.170 5.0000E-03 21
  16.5    1       2       4189.382034 X       0   1     0.5     1.5           523.170 5.0000E-03 21
  16.5    1       3       6335.087798 X       1   1    -0.5     0.5             4.336 5.0990E-03 15
  16.5    1       4       6762.280007 X       1   1     0.5     1.5             3.540 5.0990E-03 10
  16.5    1       5       8800.302902 X       2   1    -0.5     0.5             3.644 5.1960E-03 11
  16.5    1       6       9210.392206 X       2   1     0.5     1.5             4.939 3.4670E-03 9
  16.5    1       9       11141.68075 X       3   1    -0.5     0.5             2.157 5.2920E-03 4
  16.5    1      10       11534.73199 X       3   1     0.5     1.5             2.412 5.2920E-03 5
  16.5    1      13       13359.84937 X       4   1    -0.5     0.5             3.682 3.4670E-03 5
  16.5    1      14       13735.87691 X       4   1     0.5     1.5             2.328 3.4670E-03 2
  16.5   -1       1       3735.786654 X       0  -1     0.5    -0.5           510.562 5.0000E-03 20
  16.5   -1       2       4200.108941 X       0  -1    -0.5    -1.5           789.611 3.4670E-03 23
  16.5   -1       3       6326.263848 X       1  -1     0.5    -0.5             6.127 3.6080E-03 15
  16.5   -1       4       6772.613643 X       1  -1    -0.5    -1.5             3.713 5.0990E-03 11
  16.5   -1       5       8791.818753 X       2  -1     0.5    -0.5             3.644 5.1960E-03 11
  16.5   -1       6       9220.302214 X       2  -1    -0.5    -1.5             4.657 3.4670E-03 8
  16.5   -1       9       11133.54792 X       3  -1     0.5    -0.5             3.538 3.6080E-03 5
  16.5   -1      10       11544.26772 X       3  -1    -0.5    -1.5             2.157 5.2920E-03 4
  16.5   -1      12        13352.0469 X       4  -1     0.5    -0.5             2.120 5.3850E-03 4
  16.5   -1      13       13745.01686 X       4  -1    -0.5    -1.5             2.328 3.4670E-03 2
  17.5    1       1       4189.997047 X       0   1    -0.5     0.5           706.753 3.7440E-03 22
  17.5    1       2       4678.769907 X       0   1     0.5     1.5           397.263 6.1900E-03 19
  17.5    1       3       6762.885627 X       1   1    -0.5     0.5             3.669 5.0990E-03 11
  17.5    1       4       7232.635944 X       1   1     0.5     1.5             4.945 3.6080E-03 10
  17.5    1       5       9210.977841 X       2   1    -0.5     0.5             4.765 3.7440E-03 10
  17.5    1       6       9661.844642 X       2   1     0.5     1.5             3.257 5.1960E-03 9
  17.5    1       9       11535.29675 X       3   1    -0.5     0.5             2.132 5.2920E-03 4
  17.5    1      10       11967.35921 X       3   1     0.5     1.5             3.496 3.6080E-03 5
  17.5    1      12       13736.40192 X       4   1    -0.5     0.5             2.610 3.7440E-03 3
  17.5    1      13       14149.66972 X       4   1     0.5     1.5             1.815 5.3850E-03 3
  17.5   -1       1        4200.19251 X       0  -1     0.5    -0.5           333.302 7.9390E-03 22
  17.5   -1       2       4666.941768 X       0  -1    -0.5    -1.5           465.208 5.0000E-03 17
  17.5   -1       3       6772.691558 X       1  -1     0.5    -0.5             4.140 5.0990E-03 14
  17.5   -1       4        7221.27702 X       1  -1    -0.5    -1.5             3.129 5.0990E-03 8
  17.5   -1       5         9220.3918 X       2  -1     0.5    -0.5             3.433 5.1960E-03 10
  17.5   -1       6       9650.914099 X       2  -1    -0.5    -1.5             3.257 5.1960E-03 9
  17.5   -1       9        11544.3499 X       3  -1     0.5    -0.5             2.611 5.2920E-03 6
  17.5   -1      10        11956.9017 X       3  -1    -0.5    -1.5             3.830 3.6080E-03 6
  17.5   -1      12       13745.05675 X       4  -1     0.5    -0.5             1.815 5.3850E-03 3
  17.5   -1      14       14139.60999 X       4  -1    -0.5    -1.5             1.815 5.3850E-03 3
  18.5    1       1       4678.759052 X       0   1    -0.5     0.5           492.047 5.1960E-03 21
  18.5    1       2        5167.26409 X       0   1     0.5     1.5           240.796 9.8300E-03 18
  18.5    1       3       7232.651516 X       1   1    -0.5     0.5             2.416 8.0010E-03 12
  18.5    1       4       7702.025763 X       1   1     0.5     1.5             3.282 5.0990E-03 9
  18.5    1       5        9661.84541 X       2   1    -0.5     0.5             3.395 5.1960E-03 10
  18.5    1       6       10112.25002 X       2   1     0.5     1.5             3.221 5.1960E-03 9
  18.5    1       9        11967.3718 X       3   1    -0.5     0.5             2.789 5.2920E-03 7
  18.5    1      10        12398.8321 X       3   1     0.5     1.5             2.582 5.2920E-03 6
  18.5    1      12        14149.6599 X       4   1    -0.5     0.5             2.072 5.3850E-03 4
  18.5    1      14        14562.1937 X       4   1     0.5     1.5             2.581 3.7440E-03 3
  18.5   -1       1       4667.511917 X       0  -1     0.5    -0.5           155.428 1.4800E-02 17
  18.5   -1       2       5180.194172 X       0  -1    -0.5    -1.5           446.330 5.0000E-03 16
  18.5   -1       3       7221.821919 X       1  -1     0.5    -0.5             5.190 3.8760E-03 13
  18.5   -1       4        7714.45792 X       1  -1    -0.5    -1.5             2.814 6.2700E-03 10
  18.5   -1       5       9651.459627 X       2  -1     0.5    -0.5             3.395 5.1960E-03 10
  18.5   -1       6       10124.15594 X       2  -1    -0.5    -1.5             3.943 3.7440E-03 7
  18.5   -1       8       11957.40684 X       3  -1     0.5    -0.5             3.526 3.8760E-03 6
  18.5   -1      10       12410.29964 X       3  -1    -0.5    -1.5             2.109 5.2920E-03 4
  18.5   -1      12       14140.09475 X       4  -1     0.5    -0.5             2.072 5.3850E-03 4
  18.5   -1      13       14573.13321 X       4  -1    -0.5    -1.5             2.581 3.7440E-03 3
  19.5    1       1       5167.771856 X       0   1    -0.5     0.5           455.247 5.0000E-03 17
  19.5    1       2       5703.813528 X       0   1     0.5     1.5           224.145 9.8520E-03 16
  19.5    1       3       7702.525926 X       1   1    -0.5     0.5             1.235 1.4830E-02 11
  19.5    1       4       8217.496168 X       1   1     0.5     1.5             3.248 5.0990E-03 9
  19.5    1       5       10112.73891 X       2   1    -0.5     0.5             4.361 4.0030E-03 10
  19.5    1       6       10606.75492 X       2   1     0.5     1.5             2.750 6.3490E-03 10
  19.5    1       8       12399.30563 X       3   1    -0.5     0.5             2.555 5.2920E-03 6
  19.5    1      10       12872.45294 X       3   1     0.5     1.5             3.489 3.8760E-03 6
  19.5    1      12       14562.62884 X       4   1    -0.5     0.5             2.389 4.0030E-03 3
  19.5    1      13       15014.90564 X       4   1     0.5     1.5             1.776 5.3850E-03 3
  19.5   -1       1       5180.107071 X       0  -1     0.5    -0.5           493.785 5.0000E-03 20
  19.5   -1       2       5689.738676 X       0  -1    -0.5    -1.5           339.745 6.0800E-03 14
  19.5   -1       3       7714.394063 X       1  -1     0.5    -0.5             3.299 5.2920E-03 10
  19.5   -1       4       8203.987519 X       1  -1    -0.5    -1.5             1.767 9.8810E-03 10
  19.5   -1       5       10124.11452 X       2  -1     0.5    -0.5             1.936 8.0640E-03 8
  19.5   -1       6       10593.77376 X       2  -1    -0.5    -1.5             3.005 5.1960E-03 8
  19.5   -1       9       12410.23141 X       3  -1     0.5    -0.5             2.086 5.2920E-03 4
  19.5   -1      10       12860.03702 X       3  -1    -0.5    -1.5             2.333 5.2920E-03 5
  19.5   -1      12        14573.0868 X       4  -1     0.5    -0.5             1.776 5.3850E-03 3
  19.5   -1      14        15002.9791 X       4  -1    -0.5    -1.5             1.776 5.3850E-03 3
  20.5    1       1       5703.645325 X       0   1    -0.5     0.5           260.846 8.8900E-03 18
  20.5    1       2       6233.778668 X       0   1     0.5     1.5           394.140 5.0000E-03 13
  20.5    1       3       8217.359057 X       1   1    -0.5     0.5             3.555 5.0990E-03 11
  20.5    1       4       8726.530657 X       1   1     0.5     1.5             2.173 6.1620E-03 6
  20.5    1       5       10606.63907 X       2   1    -0.5     0.5             3.045 5.3850E-03 9
  20.5    1       6       11094.96053 X       2   1     0.5     1.5             1.456 9.9310E-03 7
  20.5    1       9       12872.35752 X       3   1    -0.5     0.5             1.648 8.1250E-03 6
  20.5    1      10       13339.87976 X       3   1     0.5     1.5             2.066 5.2920E-03 4
  20.5    1      12       15014.79341 X       4   1    -0.5     0.5             1.758 5.3850E-03 3
  20.5    1      14       15461.45902 X       4   1     0.5     1.5             1.758 5.3850E-03 3
  20.5   -1       1       5690.205277 X       0  -1     0.5    -0.5           206.751 1.0900E-02 17
  20.5   -1       2       6248.987112 X       0  -1    -0.5    -1.5           437.259 5.0000E-03 16
  20.5   -1       3       8204.433866 X       1  -1     0.5    -0.5             3.390 5.0990E-03 10
  20.5   -1       4       8741.155513 X       1  -1    -0.5    -1.5             1.656 9.9030E-03 9
  20.5   -1       5       10594.21892 X       2  -1     0.5    -0.5             1.162 1.4870E-02 10
  20.5   -1       6       11109.01617 X       2  -1    -0.5    -1.5             3.156 5.1960E-03 9
  20.5   -1       8       12860.47091 X       3  -1     0.5    -0.5             3.245 4.1260E-03 6
  20.5   -1      10       13353.32292 X       3  -1    -0.5    -1.5             1.701 6.4280E-03 4
  20.5   -1      12       15003.38163 X       4  -1     0.5    -0.5             1.758 5.3850E-03 3
  20.5   -1      13       15474.30494 X       4  -1    -0.5    -1.5             2.365 4.0030E-03 3
  21.5    1       1       6234.188967 X       0   1    -0.5     0.5           233.915 8.6600E-03 14
  21.5    1       2       6815.129064 X       0   1     0.5     1.5           419.361 5.0000E-03 15
  21.5    1       3       8726.954561 X       1   1    -0.5     0.5             1.483 1.0950E-02 9
  21.5    1       4       9284.779117 X       1   1     0.5     1.5             3.003 5.0990E-03 8
  21.5    1       5       11095.35087 X       2   1    -0.5     0.5             2.947 5.1960E-03 8
  21.5    1       6       11630.30951 X       2   1     0.5     1.5             1.439 9.9530E-03 7
  21.5    1       8       13340.27392 X       3   1    -0.5     0.5             0.890 1.4900E-02 6
  21.5    1      10       13852.28717 X       3   1     0.5     1.5             2.046 5.2920E-03 4
  21.5    1      12       15461.85291 X       4   1    -0.5     0.5             2.209 4.2450E-03 3
  21.5    1      13       15950.82392 X       4   1     0.5     1.5             1.177 6.5050E-03 2
  21.5   -1       1       6248.762127 X       0  -1     0.5    -0.5           433.114 5.0000E-03 16
  21.5   -1       2       6798.765418 X       0  -1    -0.5    -1.5           390.404 5.0000E-03 13
  21.5   -1       3       8740.947326 X       1  -1     0.5    -0.5             1.914 8.9460E-03 10
  21.5   -1       4       9269.060691 X       1  -1    -0.5    -1.5             2.809 5.0990E-03 7
  21.5   -1       5       11108.82205 X       2  -1     0.5    -0.5             3.126 5.1960E-03 9
  21.5   -1       6       11615.16466 X       2  -1    -0.5    -1.5             2.125 6.2420E-03 6
  21.5   -1       9       13353.16107 X       3  -1     0.5    -0.5             2.210 5.4770E-03 5
  21.5   -1      10       13837.78853 X       3  -1    -0.5    -1.5             1.085 9.9810E-03 4
  21.5   -1      12       15474.15952 X       4  -1     0.5    -0.5             1.145 8.1870E-03 3
  21.5   -1      14       15936.99176 X       4  -1    -0.5    -1.5             1.741 5.3850E-03 3
  22.5    1       1       6814.842744 X       0   1    -0.5     0.5           401.474 5.0000E-03 14
  22.5    1       2       7384.060143 X       0   1     0.5     1.5           199.593 8.5000E-03 10
  22.5    1       3       9284.534137 X       1   1    -0.5     0.5             3.490 5.0990E-03 11
  22.5    1       4        9830.94743 X       1   1     0.5     1.5             2.577 5.0990E-03 6
  22.5    1       5       11630.01132 X       2   1    -0.5     0.5             1.686 9.0020E-03 8
  22.5    1       6       12153.75869 X       2   1     0.5     1.5             2.732 5.1960E-03 7
  22.5    1       9       13852.05205 X       3   1    -0.5     0.5             2.483 5.2920E-03 6
  22.5    1      10       14353.12466 X       3   1     0.5     1.5             1.162 7.9980E-03 3
  22.5    1      12       15950.60807 X       4   1    -0.5     0.5             1.363 5.5680E-03 2
  22.5    1      13       16428.96653 X       4   1     0.5     1.5             1.070 1.0030E-02 4
  22.5   -1       1       6799.150366 X       0  -1     0.5    -0.5           323.248 6.2100E-03 14
  22.5   -1       2       7401.584933 X       0  -1    -0.5    -1.5           415.565 5.0000E-03 15
  22.5   -1       3       9269.430979 X       1  -1     0.5    -0.5             1.741 8.7180E-03 8
  22.5   -1       4       9847.786074 X       1  -1    -0.5    -1.5             2.784 5.0990E-03 7
  22.5   -1       5       11615.53856 X       2  -1     0.5    -0.5             1.196 1.0990E-02 6
  22.5   -1       6       12169.91511 X       2  -1    -0.5    -1.5             2.529 5.1960E-03 6
  22.5   -1       8       13838.13887 X       3  -1     0.5    -0.5             2.483 5.2920E-03 6
  22.5   -1       9       14368.67651 X       3  -1    -0.5    -1.5             1.073 1.0000E-02 4
  22.5   -1      12       15937.33392 X       4  -1     0.5    -0.5             0.622 1.4930E-02 3
  22.5   -1      13       16443.81317 X       4  -1    -0.5    -1.5             1.409 5.3850E-03 2
  23.5    1       1       7384.400839 X       0   1    -0.5     0.5           352.787 5.0000E-03 11
  23.5    1       2       8007.687997 X       0   1     0.5     1.5           336.369 5.0000E-03 10
  23.5    1       3       9831.312377 X       1   1    -0.5     0.5             2.537 6.2900E-03 9
  23.5    1       4       10429.49192 X       1   1     0.5     1.5             2.950 5.0990E-03 8
  23.5    1       5       12154.10398 X       2   1    -0.5     0.5             1.485 8.7750E-03 6
  23.5    1       6       12727.34108 X       2   1     0.5     1.5             2.708 5.1960E-03 7
  23.5    1       8       14353.47356 X       3   1    -0.5     0.5             0.881 1.2080E-02 4
  23.5    1       9       14901.74211 X       3   1     0.5     1.5             2.247 5.2920E-03 5
  23.5    1      11       16429.26487 X       4   1    -0.5     0.5             1.975 5.3850E-03 4
  23.5    1      13       16952.56651 X       4   1     0.5     1.5             0.748 1.0050E-02 2
  23.5   -1       1       7401.231469 X       0  -1     0.5    -0.5           240.627 8.2700E-03 14
  23.5   -1       2       7988.989042 X       0  -1    -0.5    -1.5           319.108 5.0000E-03 9
  23.5   -1       3       9847.479749 X       1  -1     0.5    -0.5             2.760 5.0990E-03 7
  23.5   -1       4       10411.54013 X       1  -1    -0.5    -1.5             1.389 8.5590E-03 5
  23.5   -1       5       12169.64614 X       2  -1     0.5    -0.5             3.071 5.1960E-03 9
  23.5   -1       6       12710.11743 X       2  -1    -0.5    -1.5             2.289 5.1960E-03 5
  23.5   -1       8       14368.35132 X       3  -1     0.5    -0.5             1.313 9.0570E-03 5
  23.5   -1      10       14885.23869 X       3  -1    -0.5    -1.5             2.462 5.2920E-03 6
  23.5   -1      12       16443.53005 X       4  -1     0.5    -0.5             1.397 5.3850E-03 2
  23.5   -1      13       16936.75066 X       4  -1    -0.5    -1.5             0.933 8.0600E-03 2
  24.5    1       1       8007.279271 X       0   1    -0.5     0.5           316.459 5.0000E-03 9
  24.5    1       2        8612.88614 X       0   1     0.5     1.5           333.578 5.0000E-03 10
  24.5    1       3       10429.12848 X       1   1    -0.5     0.5             1.791 8.3300E-03 8
  24.5    1       4       11010.16604 X       1   1     0.5     1.5             2.069 5.0990E-03 4
  24.5    1       5       12727.01974 X       2   1    -0.5     0.5             2.686 5.1960E-03 7
  24.5    1       6       13283.55313 X       2   1     0.5     1.5             1.369 8.6170E-03 5
  24.5    1       8       14901.45814 X       3   1    -0.5     0.5             2.229 5.2920E-03 5
  24.5    1      10       15433.49743 X       3   1     0.5     1.5             1.993 5.2920E-03 4
  24.5    1      12       16952.19732 X       4   1    -0.5     0.5             0.819 9.1120E-03 2
  24.5    1      13       17459.60769 X       4   1     0.5     1.5             1.385 5.3850E-03 2
  24.5   -1       1       7989.297859 X       0  -1     0.5    -0.5           349.859 5.0000E-03 11
  24.5   -1       2       8632.754052 X       0  -1    -0.5    -1.5           316.459 5.0000E-03 9
  24.5   -1       3       10411.85583 X       1  -1     0.5    -0.5             2.534 5.0990E-03 6
  24.5   -1       4        11029.2508 X       1  -1    -0.5    -1.5             1.827 7.0710E-03 6
  24.5   -1       5       12710.45938 X       2  -1     0.5    -0.5             1.852 6.3690E-03 5
  24.5   -1       6       13301.84491 X       2  -1    -0.5    -1.5             2.686 5.1960E-03 7
  24.5   -1       8       14885.56398 X       3  -1     0.5    -0.5             1.463 8.8320E-03 6
  24.5   -1       9       15451.01408 X       3  -1    -0.5    -1.5             2.441 5.2920E-03 6
  24.5   -1      11       16937.03356 X       4  -1     0.5    -0.5             0.615 1.2120E-02 2
  24.5   -1      13       17476.33711 X       4  -1    -0.5    -1.5             1.385 5.3850E-03 2
  25.5    1       1       8613.164727 X       0   1    -0.5     0.5           295.983 5.0000E-03 8
  25.5    1       2       9276.090196 X       0   1     0.5     1.5           295.983 5.0000E-03 8
  25.5    1       3       11010.44485 X       1   1    -0.5     0.5             2.295 5.0990E-03 5
  25.5    1       4        11646.3251 X       1   1     0.5     1.5             2.715 5.0990E-03 7
  25.5    1       5       13283.85083 X       2   1    -0.5     0.5             2.467 5.1960E-03 6
  25.5    1       6        13892.7638 X       2   1     0.5     1.5             1.638 7.1410E-03 5
  25.5    1       8       15433.80538 X       3   1    -0.5     0.5             1.815 6.4470E-03 5
  25.5    1       9       16015.70091 X       3   1     0.5     1.5             1.977 5.2920E-03 4
  25.5    1      11       17459.89298 X       4   1    -0.5     0.5             0.833 8.8880E-03 2
  25.5    1      13       18014.60808 X       4   1     0.5     1.5             1.374 5.3850E-03 2
  25.5   -1       1       8632.292879 X       0  -1     0.5    -0.5           295.983 5.0000E-03 8
  25.5   -1       2       9255.062083 X       0  -1    -0.5    -1.5           313.938 5.0000E-03 9
  25.5   -1       3       11028.81169 X       1  -1     0.5    -0.5             1.958 7.0710E-03 7
  25.5   -1       4       11626.12214 X       1  -1    -0.5    -1.5             2.295 5.0990E-03 5
  25.5   -1       5       13301.46648 X       2  -1     0.5    -0.5             1.650 8.3900E-03 7
  25.5   -1       6       13873.40404 X       2  -1    -0.5    -1.5             2.467 5.1960E-03 6
  25.5   -1       8       15450.67274 X       3  -1     0.5    -0.5             2.422 5.2920E-03 6
  25.5   -1      10       15997.17313 X       3  -1    -0.5    -1.5             1.349 8.6750E-03 5
  25.5   -1      12       17476.00914 X       4  -1     0.5    -0.5             1.374 5.3850E-03 2
  25.5   -1      13       17996.90043 X       4  -1    -0.5    -1.5             0.052 1.0010E-01 1
  26.5    1       1       9275.579366 X       0   1    -0.5     0.5           293.715 5.0000E-03 8
  26.5    1       2       9914.801368 X       0   1     0.5     1.5           254.364 5.0000E-03 6
  26.5    1       3       11645.85387 X       1   1    -0.5     0.5             2.880 5.0990E-03 8
  26.5    1       4       12258.73308 X       1   1     0.5     1.5             2.277 5.0990E-03 5
  26.5    1       5        13892.3047 X       2   1    -0.5     0.5             1.781 7.1410E-03 6
  26.5    1       6       14478.93914 X       2   1     0.5     1.5             1.999 5.1960E-03 4
  26.5    1       8       16015.30248 X       3   1    -0.5     0.5             1.229 8.4490E-03 4
  26.5    1      10       16575.59904 X       3   1     0.5     1.5             2.194 5.2920E-03 5
  26.5    1      12       18014.23374 X       4   1    -0.5     0.5             1.364 5.3850E-03 2
  26.5    1      13       18547.98013 X       4   1     0.5     1.5             0.841 8.7320E-03 2
  26.5   -1       1        9255.30768 X       0  -1     0.5    -0.5           293.715 5.0000E-03 8
  26.5   -1       2       9936.986032 X       0  -1    -0.5    -1.5           311.532 5.0000E-03 9
  26.5   -1       3       11626.39073 X       1  -1     0.5    -0.5             2.494 5.0990E-03 6
  26.5   -1       4       12280.00119 X       1  -1    -0.5    -1.5             2.494 5.0990E-03 6
  26.5   -1       5       13873.66285 X       2  -1     0.5    -0.5             2.448 5.1960E-03 6
  26.5   -1       6       14499.36212 X       2  -1    -0.5    -1.5             2.234 5.1960E-03 5
  26.5   -1       8       15997.45083 X       3  -1     0.5    -0.5             2.194 5.2920E-03 5
  26.5   -1       9        16595.1298 X       3  -1    -0.5    -1.5             1.440 7.2110E-03 4
  26.5   -1      11       17997.21267 X       4  -1     0.5    -0.5             1.126 6.5240E-03 2
  26.5   -1      13       18566.58591 X       4  -1    -0.5    -1.5             1.364 5.3850E-03 2
  27.5    1       1       9915.018071 X       0   1    -0.5     0.5           272.717 5.0000E-03 7
  27.5    1       2       10614.71602 X       0   1     0.5     1.5           230.488 5.0000E-03 5
  27.5    1       3       12258.96868 X       1   1    -0.5     0.5             2.476 5.0990E-03 6
  27.5    1       4       12929.63103 X       1   1     0.5     1.5             2.674 5.0990E-03 7
  27.5    1       5       14479.19273 X       2   1    -0.5     0.5             2.430 5.1960E-03 6
  27.5    1       6       15120.88457 X       2   1     0.5     1.5             1.984 5.1960E-03 4
  27.5    1       8       16575.84785 X       3   1    -0.5     0.5             2.178 5.2920E-03 5
  27.5    1       9       17188.55312 X       3   1     0.5     1.5             1.377 5.2920E-03 2
  27.5    1      11       18548.21083 X       4   1    -0.5     0.5             1.354 5.3850E-03 2
  27.5    1      13        19131.5455 X       4   1     0.5     1.5             1.001 7.2800E-03 2
  27.5   -1       1        9936.42721 X       0  -1     0.5    -0.5           309.232 5.0000E-03 9
  27.5   -1       2       10591.38557 X       0  -1    -0.5    -1.5           230.488 5.0000E-03 5
  27.5   -1       3       12279.48036 X       1  -1     0.5    -0.5             2.674 5.0990E-03 7
  27.5   -1       4       12907.25937 X       1  -1    -0.5    -1.5             2.022 5.0990E-03 4
  27.5   -1       5        14498.8903 X       2  -1     0.5    -0.5             2.218 5.1960E-03 5
  27.5   -1       6       15099.46608 X       2  -1    -0.5    -1.5             1.984 5.1960E-03 4
  27.5   -1       8        16594.6567 X       3  -1     0.5    -0.5             1.598 7.2110E-03 5
  27.5   -1       9       17168.01014 X       3  -1    -0.5    -1.5             1.377 5.2920E-03 2
  27.5   -1      12       18566.16548 X       4  -1     0.5    -0.5             0.857 8.5080E-03 2
  27.5   -1      13       19112.01474 X       4  -1    -0.5    -1.5             1.354 5.3850E-03 2
  28.5    1       1        10614.1112 X       0   1    -0.5     0.5           228.847 5.0000E-03 5
  28.5    1       2       11284.07713 X       0   1     0.5     1.5           228.847 5.0000E-03 5
  28.5    1       3        12929.0622 X       1   1    -0.5     0.5             2.655 5.0990E-03 7
  28.5    1       4       13570.98457 X       1   1     0.5     1.5             1.447 7.0710E-03 4
  28.5    1       5       15120.37297 X       2   1    -0.5     0.5             2.412 5.1960E-03 6
  28.5    1       6       15734.24137 X       2   1     0.5     1.5             1.970 5.1960E-03 4
  28.5    1       8        17188.0713 X       3   1    -0.5     0.5             1.367 5.2920E-03 2
  28.5    1       9       17773.71608 X       3   1     0.5     1.5             1.367 5.2920E-03 2
  28.5    1      12        19131.0551 X       4   1    -0.5     0.5             0.994 7.2800E-03 2
  28.5   -1       1       10591.57359 X       0  -1     0.5    -0.5           228.847 5.0000E-03 5
  28.5   -1       2       11308.54125 X       0  -1    -0.5    -1.5           270.776 5.0000E-03 7
  28.5   -1       3       12907.46607 X       1  -1     0.5    -0.5             2.458 5.0990E-03 6
  28.5   -1       4        13594.4174 X       1  -1    -0.5    -1.5             2.655 5.0990E-03 7
  28.5   -1       5       15099.69168 X       2  -1     0.5    -0.5             1.970 5.1960E-03 4
  28.5   -1       6       15756.69503 X       2  -1    -0.5    -1.5             1.706 5.1960E-03 3
  28.5   -1       7       17168.25373 X       3  -1     0.5    -0.5             1.367 5.2920E-03 2
  28.5   -1       9       17795.17857 X       3  -1    -0.5    -1.5             1.367 5.2920E-03 2
  28.5   -1      11       19112.22975 X       4  -1     0.5    -0.5             1.344 5.3850E-03 2
  29.5    1       1       11284.23883 X       0   1    -0.5     0.5           227.274 5.0000E-03 5
  29.5    1       2       12017.71292 X       0   1     0.5     1.5           248.967 5.0000E-03 6
  29.5    1       3       13571.15759 X       1   1    -0.5     0.5             2.637 5.0990E-03 7
  29.5    1       4       14273.64724 X       1   1     0.5     1.5             2.229 5.0990E-03 5
  29.5    1       5       15734.44807 X       2   1    -0.5     0.5             2.187 5.1960E-03 5
  29.5    1       6        16405.9724 X       2   1     0.5     1.5             1.956 5.1960E-03 4
  29.5    1       7       17773.93168 X       3   1    -0.5     0.5             1.358 5.2920E-03 2
  29.5    1       9       18414.37003 X       3   1     0.5     1.5             0.705 7.2110E-03 1
  29.5   -1       1       11307.89373 X       0  -1     0.5    -0.5           248.967 5.0000E-03 6
  29.5   -1       2       11992.12925 X       0  -1    -0.5    -1.5           248.967 5.0000E-03 6
  29.5   -1       3       13593.81202 X       1  -1     0.5    -0.5             1.760 7.0710E-03 6
  29.5   -1       4       14249.15813 X       1  -1    -0.5    -1.5             2.441 5.0990E-03 6
  29.5   -1       5        15756.1262 X       2  -1     0.5    -0.5             2.396 5.1960E-03 6
  29.5   -1       6       16382.53599 X       2  -1    -0.5    -1.5             1.743 7.1410E-03 6
  29.5   -1       8       17794.66659 X       3  -1     0.5    -0.5             1.358 5.2920E-03 2
  29.5   -1       9       18391.93137 X       3  -1    -0.5    -1.5             0.705 7.2110E-03 1
  30.5    1       1       12017.02433 X       0   1    -0.5     0.5           267.128 5.0000E-03 7
  30.5    1       2       12714.78269 X       0   1     0.5     1.5           225.764 5.0000E-03 5
  30.5    1       3       14272.99973 X       1   1    -0.5     0.5             2.425 5.0990E-03 6
  30.5    1       4       14940.99232 X       1   1     0.5     1.5             2.425 5.0990E-03 6
  30.5    1       5       16405.36702 X       2   1    -0.5     0.5             1.414 7.1410E-03 4
  30.5    1       6        17043.5732 X       2   1     0.5     1.5             2.380 5.1960E-03 6
  30.5    1       8        18413.8012 X       3   1    -0.5     0.5             1.652 5.2920E-03 3
  30.5    1       9       19021.92099 X       3   1     0.5     1.5             0.990 7.2110E-03 2
  30.5   -1       1       11992.26569 X       0  -1     0.5    -0.5           267.128 5.0000E-03 7
  30.5   -1       2       12741.47017 X       0  -1    -0.5    -1.5           247.312 5.0000E-03 6
  30.5   -1       3       14249.31983 X       1  -1     0.5    -0.5             2.425 5.0990E-03 6
  30.5   -1       4       14966.53792 X       1  -1    -0.5    -1.5             2.425 5.0990E-03 6
  30.5   -1       5       16382.70916 X       2  -1     0.5    -0.5             2.571 5.1960E-03 7
  30.5   -1       6       17067.99324 X       2  -1    -0.5    -1.5             2.172 5.1960E-03 5
  30.5   -1       7       18392.13807 X       3  -1     0.5    -0.5             1.349 5.2920E-03 2
  30.5   -1       9        19045.2614 X       3  -1    -0.5    -1.5             1.349 5.2920E-03 2
  31.5    1       1       12714.89494 X       0   1    -0.5     0.5           245.722 5.0000E-03 6
  31.5    1       2       13479.04283 X       0   1     0.5     1.5           245.722 5.0000E-03 6
  31.5    1       3       14941.13069 X       1   1    -0.5     0.5             1.967 5.0990E-03 4
  31.5    1       4       15672.34617 X       1   1     0.5     1.5             2.200 5.0990E-03 5
  31.5    1       5       17043.73491 X       2   1    -0.5     0.5             2.365 5.1960E-03 6
  31.5    1       6       17741.95292 X       2   1     0.5     1.5             1.365 5.1960E-03 2
  31.5    1       7       19022.09416 X       3   1    -0.5     0.5             1.340 5.2920E-03 2
  31.5    1       9       19687.10524 X       3   1     0.5     1.5             1.340 5.2920E-03 2
  31.5   -1       1       12740.74266 X       0  -1     0.5    -0.5           245.722 5.0000E-03 6
  31.5   -1       2        13451.2675 X       0  -1    -0.5    -1.5           173.751 5.0000E-03 3
  31.5   -1       3       14965.84934 X       1  -1     0.5    -0.5             2.410 5.0990E-03 6
  31.5   -1       4       15645.76869 X       1  -1    -0.5    -1.5             1.967 5.0990E-03 4
  31.5   -1       5       17067.34573 X       2  -1     0.5    -0.5             2.159 5.1960E-03 5
  31.5   -1       6       17716.55832 X       2  -1    -0.5    -1.5             1.365 5.1960E-03 2
  31.5   -1       8       19044.65602 X       3  -1     0.5    -0.5             0.984 7.2110E-03 2
  31.5   -1       9        19662.8772 X       3  -1    -0.5    -1.5             1.340 5.2920E-03 2
  32.5    1       1       13478.27876 X       0   1    -0.5     0.5           244.191 5.0000E-03 6
  32.5    1       2        14200.8044 X       0   1     0.5     1.5           172.669 5.0000E-03 3
  32.5    1       3       15671.61866 X       1   1    -0.5     0.5             2.186 5.0990E-03 5
  32.5    1       4        16362.6795 X       1   1     0.5     1.5             1.955 5.0990E-03 4
  32.5    1       5       17741.26434 X       2   1    -0.5     0.5             1.357 5.1960E-03 2
  32.5    1       6       18400.75369 X       2   1     0.5     1.5             1.357 5.1960E-03 2
  32.5    1       8       19686.45773 X       3   1    -0.5     0.5             1.332 5.2920E-03 2
  32.5   -1       1       13451.35706 X       0  -1     0.5    -0.5           222.915 5.0000E-03 5
  32.5   -1       2        14229.6517 X       0  -1    -0.5    -1.5           222.915 5.0000E-03 5
  32.5   -1       3       15645.88094 X       1  -1     0.5    -0.5             1.955 5.0990E-03 4
  32.5   -1       4       16390.26983 X       1  -1    -0.5    -1.5             1.955 5.0990E-03 4
  32.5   -1       5       17716.69669 X       2  -1     0.5    -0.5             1.357 5.1960E-03 2
  32.5   -1       6       18427.10217 X       2  -1    -0.5    -1.5             1.357 5.1960E-03 2
  32.5   -1       7       19663.03891 X       3  -1     0.5    -0.5             1.332 5.2920E-03 2
  33.5    1       1       14200.87244 X       0   1    -0.5     0.5           198.176 5.0000E-03 4
  33.5    1       2        14992.5084 X       0   1     0.5     1.5           198.176 5.0000E-03 4
  33.5    1       3       16362.76906 X       1   1    -0.5     0.5             1.943 5.0990E-03 4
  33.5    1       4        17119.5107 X       1   1     0.5     1.5             1.943 5.0990E-03 4
  33.5    1       5       18400.86594 X       2   1    -0.5     0.5             1.348 5.1960E-03 2
  33.5    1       6       19122.59983 X       2   1     0.5     1.5             1.348 5.1960E-03 2
  33.5   -1       1        14228.8529 X       0  -1     0.5    -0.5           198.176 5.0000E-03 4
  33.5   -1       2        14962.6046 X       0  -1    -0.5    -1.5           198.176 5.0000E-03 4
  33.5   -1       3       16389.50576 X       1  -1     0.5    -0.5             1.943 5.0990E-03 4
  33.5   -1       4        17090.9504 X       1  -1    -0.5    -1.5             1.943 5.0990E-03 4
  33.5   -1       5       18426.37466 X       2  -1     0.5    -0.5             1.348 5.1960E-03 2
  33.5   -1       6        19095.3145 X       2  -1    -0.5    -1.5             1.348 5.1960E-03 2
  34.5    1       1       14991.67686 X       0   1    -0.5     0.5           197.014 5.0000E-03 4
  34.5    1       2        15735.8707 X       0   1     0.5     1.5           170.619 5.0000E-03 3
  34.5    1       3        17118.7119 X       1   1    -0.5     0.5             1.932 5.0990E-03 4
  34.5    1       4        17829.7546 X       1   1     0.5     1.5             1.932 5.0990E-03 4
  34.5    1       5       19121.83576 X       2   1    -0.5     0.5             1.341 5.1960E-03 2
  34.5    1       6        19799.4814 X       2   1     0.5     1.5             1.341 5.1960E-03 2
  34.5   -1       1        14962.6521 X       0  -1     0.5    -0.5           197.014 5.0000E-03 4
  34.5   -1       2        15766.8175 X       0  -1    -0.5    -1.5           170.619 5.0000E-03 3
  34.5   -1       3       17091.01844 X       1  -1     0.5    -0.5             1.932 5.0990E-03 4
  34.5   -1       4        17859.2804 X       1  -1    -0.5    -1.5             1.673 5.0990E-03 3
  34.5   -1       5       19095.40406 X       2  -1     0.5    -0.5             1.341 5.1960E-03 2
  34.5   -1       6        19827.6137 X       2  -1    -0.5    -1.5             1.341 5.1960E-03 2
  35.5    1       1       15735.16239 X       0   1    -0.5     0.5             1.949 5.0250E-01 4
  35.5    1       3        17829.8021 X       1   1    -0.5     0.5             1.921 5.0990E-03 4
  35.5    1       4        18608.7715 X       1   1     0.5     1.5             1.664 5.0990E-03 3
  35.5    1       5       19799.54944 X       2   1    -0.5     0.5             1.333 5.1960E-03 2
  35.5    1       6        20541.3734 X       2   1     0.5     1.5             0.049 1.0010E-01 1
  35.5   -1       3       17858.44886 X       1  -1     0.5    -0.5             1.358 5.0990E-03 2
  35.5   -1       4        18578.3289 X       1  -1    -0.5    -1.5             1.358 5.0990E-03 2
  35.5   -1       5        19826.8149 X       2  -1     0.5    -0.5             1.333 5.1960E-03 2
  35.5   -1       6        20512.3246 X       2  -1    -0.5    -1.5             1.333 5.1960E-03 2
  36.5    1       1       16548.52236 X       0   1    -0.5     0.5             1.679 5.0250E-01 3
  36.5   -1       3       18577.58939 X       1  -1     0.5    -0.5             0.019 5.0250E-01 4
  36.5   -1       5        20512.3721 X       2  -1     0.5    -0.5             1.326 5.1960E-03 2
  36.5   -1       6        21263.0605 X       2  -1    -0.5    -1.5             0.049 1.0010E-01 1
  37.5    1       5       21232.40739 X       2   1    -0.5     0.5             0.014 5.0250E-01 2
  37.5   -1       3       19363.92736 X       1  -1     0.5    -0.5             0.014 5.0250E-01 2
   0.5    1     102       31777.38028 C       0   0     0.5     0.5           574.349 4.0000E-03 4
   0.5    1     121       34388.94019 C       1   0     0.5     0.5             0.325 5.0010E-02 2
   0.5    1     131       36758.64956 C       2   0     0.5     0.5             0.154 1.2900E-01 3
   0.5   -1     102       31805.83005 C       0   0    -0.5    -0.5          1284.284 2.0000E-03 5
   0.5   -1     121        34415.9157 C       1   0    -0.5    -0.5             0.325 5.0010E-02 2
   0.5   -1     131       36783.69901 C       2   0    -0.5    -0.5             0.200 8.1110E-02 2
   1.5    1     175       31862.78525 C       0   0     0.5     0.5          1219.834 2.0000E-03 7
   1.5    1     204       34469.90676 C       1   0     0.5     0.5             0.369 5.0010E-02 4
   1.5    1     218        36834.1354 C       2   0     0.5     0.5             0.289 6.3920E-02 4
   1.5   -1     175       31805.90053 C       0   0    -0.5    -0.5          1219.834 2.0000E-03 7
   1.5   -1     204       34415.85065 C       1   0    -0.5    -0.5             0.046 2.0000E-01 1
   1.5   -1     218       36783.79065 C       2   0    -0.5    -0.5             0.452 5.0020E-02 6
   2.5    1     179       31862.88865 C       0   0     0.5     0.5          1244.474 2.0070E-03 9
   2.5    1     209       34470.00986 C       1   0     0.5     0.5             0.408 5.0010E-02 6
   2.5    1     225       36834.21769 C       2   0     0.5     0.5             3.925 5.1960E-03 6
   2.5   -1     179       31948.12712 C       0   0    -0.5    -0.5          1100.814 2.0010E-03 7
   2.5   -1     210        34550.7884 C       1   0    -0.5    -0.5             0.408 5.0010E-02 6
   2.5   -1     226       36909.52788 C       2   0    -0.5    -0.5             0.408 5.0020E-02 6
   3.5    1     182       32061.74686 C       0   0     0.5     0.5          1100.232 2.0010E-03 8
   3.5    1     210       34658.44026 C       1   0     0.5     0.5             0.381 5.0010E-02 6
   3.5    1     227       37009.84328 C       3   0     0.5     0.5             0.381 5.0020E-02 6
   3.5   -1     179       31948.27217 C       0   0    -0.5    -0.5           514.458 4.0030E-03 7
   3.5   -1     210       34550.88974 C       1   0    -0.5    -0.5             0.381 5.0010E-02 6
   3.5   -1     226       36909.65509 C       2   0    -0.5    -0.5             0.348 5.0020E-02 5
   4.5    1     182       32061.93522 C       0   0     0.5     0.5           798.053 2.4540E-03 7
   4.5    1     210       34658.62247 C       1   0     0.5     0.5             0.331 5.0010E-02 5
   4.5    1     227       37009.98019 C       3   0     0.5     0.5             0.331 5.0020E-02 5
   4.5   -1     182       32203.49012 C       0   0    -0.5    -0.5           799.356 2.4500E-03 7
   4.5   -1     212       34792.66244 C       1   0    -0.5    -0.5             0.331 5.0010E-02 5
   4.5   -1     228       37134.92209 C       4   0    -0.5    -0.5             0.362 5.0020E-02 6
   5.5    1     185       32373.16863 C       0   0     0.5     0.5           766.971 2.4530E-03 7
   5.5    1     213       34953.38465 C       1   0     0.5     0.5             0.348 5.0010E-02 6
   5.5    1     230       37284.42474 C       6   0     0.5     0.5             0.181 9.6110E-02 6
   5.5   -1     182       32203.71512 C       0   0    -0.5    -0.5           819.592 2.4540E-03 8
   5.5   -1     212       34792.90543 C       1   0    -0.5    -0.5             0.318 5.0010E-02 5
   5.5   -1     228       37135.13217 C       4   0    -0.5    -0.5             0.348 5.0020E-02 6
   6.5    1     185       32373.43141 C       0   0     0.5     0.5           686.465 2.4540E-03 6
   6.5    1     213       34953.62214 C       1   0     0.5     0.5             0.337 5.0010E-02 6
   6.5    1     230       37284.69729 C       6   0     0.5     0.5             0.337 5.0020E-02 6
   6.5   -1     185       32570.55429 C       0   0    -0.5    -0.5           428.636 4.2450E-03 7
   6.5   -1     214        35140.2352 C       1   0    -0.5    -0.5             0.337 5.0010E-02 6
   6.5   -1     232       37458.18582 C       7   0    -0.5    -0.5             0.307 5.0020E-02 5
   7.5    1     188       32795.37679 C       0   0     0.5     0.5           667.482 2.8320E-03 8
   7.5    1     216       35352.94709 C       1   0     0.5     0.5             3.093 5.2930E-03 6
   7.5    1     235       37655.77643 C       9   0     0.5     0.5             0.231 5.0020E-02 3
   7.5   -1     185       32570.85083 C       0   0    -0.5    -0.5           667.482 2.8320E-03 8
   7.5   -1     213       35140.50343 C       1   0    -0.5    -0.5             0.327 5.0030E-02 6
   7.5   -1     231       37458.45707 C       7   0    -0.5    -0.5             0.299 5.0020E-02 5
   8.5    1     188       32795.71348 C       0   0     0.5     0.5            48.824 4.0050E-02 9
   8.5    1     214       35353.26422 C       1   0     0.5     0.5             0.319 5.0030E-02 6
   8.5    1     233       37656.09163 C       9   0     0.5     0.5             0.226 5.0040E-02 3
   8.5   -1     191       33047.34382 C       0   0    -0.5    -0.5           608.936 2.8320E-03 7
   8.5   -1     217       35591.15131 C       1   0    -0.5    -0.5             0.065 2.0000E-01 4
   8.5   -1     238       37876.78498 C      11   0    -0.5    -0.5             0.261 5.0040E-02 4
   9.5    1     193       33326.10434 C       0   0     0.5     0.5            77.492 2.0150E-02 6
   9.5    1     219       35854.70939 C       1   0     0.5     0.5             0.312 5.0050E-02 6
   9.5    1     245       38120.76354 C      12   0     0.5     0.5             0.255 5.0060E-02 4
   9.5   -1     191       33047.71714 C       0   0    -0.5    -0.5           532.713 3.1660E-03 7
   9.5   -1     216       35591.57849 C       1   0    -0.5    -0.5             0.312 5.0050E-02 6
   9.5   -1     237       37877.07762 C      11   0    -0.5    -0.5             2.646 5.3870E-03 5
  10.5    1     192       33326.50208 C       0   0     0.5     0.5            87.707 2.0150E-02 8
  10.5    1     218       35855.06758 C       1   0     0.5     0.5             0.279 5.0050E-02 5
  10.5    1     245       38121.09979 C      12   0     0.5     0.5             0.216 5.0060E-02 3
  10.5   -1     195       33631.30353 C       0   0    -0.5    -0.5            85.707 2.0620E-02 8
  10.5   -1     220       36142.94026 C       1   0    -0.5    -0.5             0.306 5.0050E-02 6
  10.5   -1     255       38387.06167 C      14   0    -0.5    -0.5             0.216 5.0060E-02 3
  11.5    1     198       33962.49602 C       0   0     0.5     0.5           331.226 4.9010E-03 7
  11.5    1     219        36455.5258 C       1   0     0.5     0.5             0.300 5.0070E-02 6
  11.5    1     263       38675.18532 C      16   0     0.5     0.5             0.212 5.0080E-02 3
  11.5   -1     194       33631.75516 C       0   0    -0.5    -0.5            43.299 4.0080E-02 8
  11.5   -1     218       36143.36699 C       1   0    -0.5    -0.5             0.274 5.0070E-02 5
  11.5   -1     254       38387.50033 C      14   0    -0.5    -0.5             0.212 5.0060E-02 3
  12.5    1     197       33962.97165 C       0   0     0.5     0.5            66.369 2.0330E-02 5
  12.5    1     218       36455.98515 C       1   0     0.5     0.5             0.269 5.0070E-02 5
  12.5    1     262       38675.61108 C      16   0     0.5     0.5             0.209 5.0080E-02 3
  12.5   -1     201       34319.28048 C       0   0    -0.5    -0.5           325.748 4.9010E-03 7
  12.5   -1     220       36791.88943 C       1   0    -0.5    -0.5             0.269 5.0070E-02 5
  12.5   -1     268        38984.2149 C      17   0    -0.5    -0.5             0.012 5.0000E-01 1
  13.5    1     204       34701.13146 C       0   0     0.5     0.5           245.527 6.4030E-03 7
  13.5    1     222       37151.62706 C       2   0     0.5     0.5             0.291 5.0090E-02 6
  13.5    1     274       39313.47928 C      19   0     0.5     0.5             0.012 5.0000E-01 1
  13.5   -1     200       34319.80136 C       0   0    -0.5    -0.5            36.269 4.0130E-02 6
  13.5   -1     220       36792.41871 C       1   0    -0.5    -0.5             0.237 5.0140E-02 4
  13.5   -1     267       38984.91826 C      17   0    -0.5    -0.5             0.168 5.0080E-02 2
  14.5    1     203       34701.67851 C       0   0     0.5     0.5            20.191 5.0250E-02 3
  14.5    1     222       37152.09518 C       2   0     0.5     0.5             0.261 5.0090E-02 5
  14.5    1     273        39314.2239 C      19   0     0.5     0.5             0.012 5.0000E-01 1
  14.5   -1     207       35107.56771 C       0   0    -0.5    -0.5           229.668 5.1010E-03 4
  14.5   -1     227       37534.01904 C       6   0    -0.5    -0.5             0.261 5.0090E-02 5
  15.5    1     210       35538.00377 C       0   0     0.5     0.5           201.853 6.4030E-03 5
  15.5    1     230       37938.36486 C       9   0     0.5     0.5             0.050 2.0000E-01 3
  15.5    1     285       40030.13598 C      22   0     0.5     0.5             0.163 5.0100E-02 2
  15.5   -1     206       35108.25271 C       0   0    -0.5    -0.5            24.836 4.0310E-02 3
  15.5   -1     226       37534.54804 C       6   0    -0.5    -0.5             0.199 5.0260E-02 3
  16.5    1     208       35538.60722 C       0   0     0.5     0.5            15.944 5.0630E-02 2
  16.5    1     229        37938.9081 C       9   0     0.5     0.5             0.049 2.0000E-01 3
  16.5    1     283        40030.5847 C      22   0     0.5     0.5             0.161 5.0270E-02 2
  16.5   -1     212       35991.88435 C       0   0    -0.5    -0.5           199.345 6.4030E-03 5
  16.5   -1     243       38364.19939 C      12   0    -0.5    -0.5             0.049 2.0000E-01 3
  16.5   -1     290       40414.64072 C      24   0    -0.5    -0.5             0.011 5.0000E-01 1
  17.5    1     213       36468.55456 C       0   0     0.5     0.5           215.816 6.4030E-03 6
  17.5    1     255       38810.64286 C      14   0     0.5     0.5             0.049 2.0010E-01 3
  17.5   -1     210        35992.5221 C       0   0    -0.5    -0.5            22.445 5.0270E-02 4
  17.5   -1     241       38364.73498 C      12   0    -0.5    -0.5             0.049 2.0010E-01 3
  17.5   -1     288        40414.8029 C      24   0    -0.5    -0.5             0.011 5.0000E-01 1
  18.5    1     211       36469.24402 C       0   0     0.5     0.5            24.826 5.0250E-02 5
  18.5    1     253       38811.36538 C      14   0     0.5     0.5             0.222 5.0150E-02 4
  18.5   -1     215       36967.41364 C       0   0    -0.5    -0.5            24.481 5.0960E-02 5
  18.5   -1     265       39277.14913 C      17   0    -0.5    -0.5             0.097 1.0010E-01 3
  19.5    1     219       37487.71784 C       3   0     0.5     0.5            24.566 5.0250E-02 5
  19.5    1     272       39762.26954 C      19   0     0.5     0.5             0.217 5.0970E-02 4
  19.5   -1     214        36968.0766 C       0   0    -0.5    -0.5            21.744 5.0780E-02 4
  19.5   -1     264       39277.69317 C      17   0    -0.5    -0.5             0.109 1.0110E-01 4
  20.5    1     218       37488.39381 C       3   0     0.5     0.5            24.322 5.0250E-02 5
  20.5    1     271        39762.9429 C      19   0     0.5     0.5             0.217 5.0260E-02 4
  20.5   -1     224       38028.69454 C       7   0    -0.5    -0.5            21.754 5.0250E-02 4
  20.5   -1     279       40265.26264 C      21   0    -0.5    -0.5             0.039 2.0010E-01 2
  21.5    1     238       38589.61915 C      11   0     0.5     0.5             4.686 2.0010E-01 3
  21.5    1     286       40785.37551 C      23   0     0.5     0.5             0.027 2.0020E-01 1
  21.5   -1     222         38029.515 C       7   0    -0.5    -0.5            18.661 5.0250E-02 3
  21.5   -1     278        40266.0066 C      21   0    -0.5    -0.5             0.038 2.0010E-01 2
  22.5    1     237       38590.34475 C      11   0     0.5     0.5            18.444 5.0380E-02 3
  22.5    1     285       40786.13733 C      23   0     0.5     0.5             0.027 2.0020E-01 1
  22.5   -1     252       39169.73708 C      14   0    -0.5    -0.5            18.321 5.0720E-02 3
  22.5   -1     292       41320.78912 C      25   0    -0.5    -0.5             0.027 2.0010E-01 1
  23.5    1     263       39768.06562 C      17   0     0.5     0.5            21.168 5.0250E-02 4
  23.5   -1     250        39170.4718 C      14   0    -0.5    -0.5            21.168 5.0250E-02 4
  23.5   -1     291       41321.41414 C      25   0    -0.5    -0.5             0.027 2.0010E-01 1
  24.5    1     261        39768.9128 C      17   0     0.5     0.5            23.470 5.0250E-02 5
  24.5   -1     273       40383.79974 C      19   0    -0.5    -0.5            13.309 7.9260E-02 4
  25.5    1     282       41015.91608 C      22   0     0.5     0.5            20.825 5.0250E-02 4
  25.5   -1     271       40384.65173 C      19   0    -0.5    -0.5            13.440 7.7860E-02 4
  26.5    1     279       41016.75554 C      22   0     0.5     0.5            17.897 5.0250E-02 3
  26.5   -1     289        41663.4273 C      24   0    -0.5    -0.5            14.613 5.0250E-02 2
  27.5    1     294       42325.19957 C      26   0     0.5     0.5            10.256 5.0250E-02 1
  27.5   -1     287       41664.24507 C      24   0    -0.5    -0.5            10.256 5.0250E-02 1
  28.5    1     291       42326.01759 C      26   0     0.5     0.5            10.183 5.0250E-02 1
  28.5   -1     301       42999.87413 C      29   0    -0.5    -0.5            10.183 5.0250E-02 1
  29.5    1     306       43686.15125 C      31   0     0.5     0.5            10.113 5.0250E-02 1
  29.5   -1     299       43000.72483 C      29   0    -0.5    -0.5            10.113 5.0250E-02 1
  30.5    1     305       43687.03669 C      31   0     0.5     0.5            10.046 5.0250E-02 1
   0.5    1      24        25723.5224 B       0   0     0.5     0.5           516.715 7.0300E-03 10
   0.5    1      30       27515.55563 B       1   0     0.5     0.5             7.472 5.0990E-03 11
   0.5   -1      24       25698.22962 B       0   0    -0.5    -0.5           761.960 5.0000E-03 11
   0.5   -1      30       27493.24277 B       1   0    -0.5    -0.5             7.620 5.0000E-03 11
   1.5    1      48       25723.48919 B       0   0     0.5     0.5           664.941 5.0000E-03 13
   1.5    1      60       27515.53631 B       1   0     0.5     0.5             5.184 6.1620E-03 12
   1.5   -1      48       25774.04011 B       0   0    -0.5    -0.5           737.686 5.0000E-03 16
   1.5   -1      60       27560.11045 B       1   0    -0.5    -0.5             4.162 9.1350E-03 17
   2.5    1      49       25849.66737 B       0   0     0.5     0.5           666.043 5.0000E-03 16
   2.5    1      62       27626.73013 B       1   0     0.5     0.5             6.732 5.0990E-03 17
   2.5   -1      49       25773.97047 B       0   0    -0.5    -0.5           706.445 5.0000E-03 18
   2.5   -1      62       27560.05899 B       1   0    -0.5    -0.5             6.927 5.0990E-03 18
   3.5    1      49       25849.56935 B       0   0     0.5     0.5           678.296 5.0020E-03 19
   3.5    1      62       27626.64897 B       1   0     0.5     0.5             4.749 6.5560E-03 16
   3.5   -1      49       25950.25604 B       0   0    -0.5    -0.5           713.103 5.0020E-03 21
   3.5   -1      63       27715.18427 B       1   0    -0.5    -0.5             4.745 7.1500E-03 19
   4.5    1      49       26075.59837 B       0   0     0.5     0.5           661.803 5.0020E-03 20
   4.5    1      65       27825.15661 B       1   0     0.5     0.5             3.761 8.3510E-03 18
   4.5   -1      49       25950.12979 B       0   0    -0.5    -0.5           627.842 5.0020E-03 18
   4.5   -1      62       27715.07963 B       1   0    -0.5    -0.5             3.179 1.0150E-02 19
   5.5    1      49       26075.44538 B       0   0     0.5     0.5           611.795 5.1980E-03 20
   5.5    1      63       27825.02767 B       1   0     0.5     0.5             2.871 1.1350E-02 21
   5.5   -1      49       26225.43821 B       0   0    -0.5    -0.5           530.034 5.1960E-03 15
   5.5   -1      66       27956.21615 B       1   0    -0.5    -0.5             2.284 1.3570E-02 19
   6.5    1      51       26399.44537 B       0   0     0.5     0.5           529.226 5.1980E-03 16
   6.5    1      83       28107.77219 B       5   0     0.5     0.5             0.532 5.0020E-02 15
   6.5   -1      49       26225.25085 B       0   0    -0.5    -0.5           529.226 5.1980E-03 16
   6.5   -1      65       27956.07516 B       1   0    -0.5    -0.5             2.068 1.4870E-02 20
   7.5    1      49       26399.23641 B       0   0     0.5     0.5           497.963 5.1980E-03 15
   7.5    1      81       28107.63077 B       5   0     0.5     0.5             0.567 5.0040E-02 18
   7.5   -1      52       26597.26141 B       0   0    -0.5    -0.5           481.078 5.1980E-03 14
   7.5   -1      94       28279.26541 B       6   0    -0.5    -0.5             0.482 5.0020E-02 13
   8.5    1      53       26818.43546 B       0   0     0.5     0.5           452.724 5.3870E-03 14
   8.5    1     104       28469.81434 B       9   0     0.5     0.5             0.487 5.0040E-02 14
   8.5   -1      50       26597.02321 B       0   0    -0.5    -0.5           414.219 6.4880E-03 17
   8.5   -1      93       28279.07612 B       7   0    -0.5    -0.5             0.451 5.0030E-02 12
   9.5    1      52       26818.17772 B       0   0     0.5     0.5           473.335 5.3870E-03 16
   9.5    1     103       28469.63449 B       8   0     0.5     0.5             0.477 5.0040E-02 14
   9.5   -1      53        27062.4875 B       0   0    -0.5    -0.5           473.335 5.3870E-03 16
   9.5   -1     112       28678.65604 B      11   0    -0.5    -0.5             0.072 2.5200E-01 8
  10.5    1      53       27328.84561 B       0   0     0.5     0.5           448.792 5.5690E-03 16
  10.5    1     119        28903.7697 B      13   0     0.5     0.5             0.094 2.0000E-01 9
  10.5   -1      52       27062.19529 B       0   0    -0.5    -0.5           462.521 5.5700E-03 17
  10.5   -1     110         28678.379 B      10   0    -0.5    -0.5             0.374 5.0060E-02 9
  11.5    1      52       27328.54351 B       0   0     0.5     0.5           408.097 6.1990E-03 17
  11.5    1     117        28903.5841 B      11   0     0.5     0.5             0.092 2.0000E-01 9
  11.5   -1      55       27616.89085 B       0   0    -0.5    -0.5           287.790 7.0710E-03 11
  11.5   -1     126       29143.29086 B      15   0    -0.5    -0.5             0.025 5.0000E-01 4
  12.5    1      56       27925.90912 B       0   0     0.5     0.5           142.391 1.4680E-02 12
  12.5    1     130       29393.74618 B      16   0     0.5     0.5             0.012 5.0000E-01 1
  12.5   -1      54       27616.56782 B       0   0    -0.5    -0.5           363.720 5.7470E-03 12
  12.5   -1     125       29144.17615 B      14   0    -0.5    -0.5             0.021 5.0000E-01 3
  13.5    1      55       27925.55582 B       0   0     0.5     0.5           191.630 1.1180E-02 13
  13.5    1     129       29396.61037 B      16   0     0.5     0.5             0.012 5.0000E-01 1
  13.5   -1      79       28255.14332 B       3   0    -0.5    -0.5           182.642 1.1270E-02 12
  14.5    1      98       28603.57586 B       8   0     0.5     0.5            30.934 5.0100E-02 7
  14.5   -1      75       28254.77977 B       4   0    -0.5    -0.5           132.279 1.5340E-02 12
  15.5    1      95        28603.0725 B       8   0     0.5     0.5            34.508 5.0250E-02 9
  15.5   -1     112       28970.25625 B      10   0    -0.5    -0.5            34.508 5.0250E-02 9
  16.5    1     121       29354.01096 B      13   0     0.5     0.5            32.213 5.0120E-02 8
  16.5   -1     109        28969.8656 B      11   0    -0.5    -0.5            37.774 5.0120E-02 11
  17.5    1     119       29353.64856 B      15   0     0.5     0.5            28.453 6.2700E-02 10
  17.5   -1     128       29753.22963 B      16   0    -0.5    -0.5            33.594 5.0380E-02 9
  18.5    1     135       30165.94105 B      16   0     0.5     0.5             1.578 5.0000E-01 2
  18.5   -1     125       29752.81653 B      15   0    -0.5    -0.5            35.187 5.0140E-02 10
  19.5    1     132       30166.28854 B      19   0     0.5     0.5            13.532 9.9930E-02 6
  19.5   -1     141       30590.12485 B      18   0    -0.5    -0.5             1.561 5.0000E-01 2
  20.5    1     145       31021.70289 B      22   0     0.5     0.5             1.546 5.0000E-01 2
  20.5   -1     138        30590.0338 B      21   0    -0.5    -0.5             2.186 5.0000E-01 4
  21.5    1     143       31021.91926 B      24   0     0.5     0.5             1.875 5.0000E-01 3
  21.5   -1     151       31460.04867 B      23   0    -0.5    -0.5             1.083 5.0000E-01 1
  22.5   -1     148       31460.45897 B      26   0    -0.5    -0.5             1.073 5.0010E-01 1
   1.5    1      39       23247.63721 A       0   2    -0.5     1.5          4697.149 1.0010E-03 26
   1.5    1      49       25983.88831 A       1   2    -0.5     1.5             6.520 5.0990E-03 13
   1.5    1     109       28526.49506 A       2   2    -0.5     1.5             3.013 1.0150E-02 11
   1.5    1     162       30855.00804 A       3   2    -0.5     1.5             2.174 7.3480E-03 3
   1.5   -1      39       23247.63766 A       0  -2     0.5    -1.5          3914.943 1.2010E-03 26
   1.5   -1      49       25983.88316 A       1  -2     0.5    -1.5             7.234 5.0990E-03 16
   1.5   -1     109       28526.50435 A       2  -2     0.5    -1.5             6.148 5.1960E-03 12
   1.5   -1     161       30855.00609 A       3  -2     0.5    -1.5             2.470 6.4660E-03 3
   2.5    1      39        23245.9015 A       0   2     0.5     2.5          1627.558 2.5060E-03 24
   2.5    1      41       23334.56372 A       0   2    -0.5     1.5           798.557 5.0000E-03 23
   2.5    1      50       25982.19984 A       1   2     0.5     2.5             7.343 5.1960E-03 21
   2.5    1      51       26066.81105 A       1   2    -0.5     1.5             7.302 5.0990E-03 20
   2.5    1     111       28524.86212 A       2   2     0.5     2.5             6.206 5.1960E-03 15
   2.5    1     116       28605.07483 A       2   2    -0.5     1.5             5.777 5.1960E-03 13
   2.5    1     164        30853.4242 A       3   2     0.5     2.5             2.725 5.2920E-03 3
   2.5    1     166       30928.76099 A       3   2    -0.5     1.5             1.299 9.0670E-03 2
   2.5    1     214       34805.51891 A       5   2    -0.5     1.5             0.017 5.0000E-01 1
   2.5   -1      39       23245.90166 A       0  -2    -0.5    -2.5           975.280 4.0040E-03 22
   2.5   -1      41       23334.56336 A       0  -2     0.5    -1.5           815.732 5.0000E-03 24
   2.5   -1      50       25982.19147 A       1  -2    -0.5    -2.5             7.302 5.0990E-03 20
   2.5   -1      51       26066.81148 A       1  -2     0.5    -1.5             7.482 5.0990E-03 21
   2.5   -1     111        28524.8524 A       2  -2    -0.5    -2.5             5.995 5.1960E-03 14
   2.5   -1     116       28605.07608 A       2  -2     0.5    -1.5             4.975 5.2920E-03 10
   2.5   -1     164       30853.42598 A       3  -2    -0.5    -2.5             2.725 5.2920E-03 3
   2.5   -1     166       30928.76932 A       3  -2     0.5    -1.5             2.225 5.2920E-03 2
   2.5   -1     214       34805.69789 A       5  -2     0.5    -1.5             0.017 5.0000E-01 1
   3.5    1      39       23333.41355 A       0   2     0.5     2.5           727.650 4.9020E-03 21
   3.5    1      41       23450.59157 A       0   2    -0.5     1.5           746.587 5.0000E-03 23
   3.5    1      50       26065.68581 A       1   2     0.5     2.5             6.294 5.0990E-03 17
   3.5    1      51       26177.48748 A       1   2    -0.5     1.5             5.912 5.0990E-03 15
   3.5    1     115       28603.99233 A       2   2     0.5     2.5             5.992 5.1960E-03 16
   3.5    1     121       28709.95261 A       2   2    -0.5     1.5             5.605 5.1960E-03 14
   3.5    1     165       30927.70139 A       3   2     0.5     2.5             2.548 5.2920E-03 3
   3.5    1     168       31027.16382 A       3   2    -0.5     1.5             2.548 5.2920E-03 3
   3.5    1     192       33008.02967 A       4   2     0.5     2.5             0.022 5.0000E-01 2
   3.5    1     194       33099.93719 A       4   2    -0.5     1.5             0.016 5.0000E-01 1
   3.5    1     213       34804.57492 A       5   2     0.5     2.5             0.022 5.0000E-01 2
   3.5   -1      40       23333.40899 A       0  -2    -0.5    -2.5           746.587 5.0000E-03 23
   3.5   -1      41       23450.59313 A       0  -2     0.5    -1.5          2280.376 1.6010E-03 22
   3.5   -1      50       26065.68365 A       1  -2    -0.5    -2.5             6.476 5.0990E-03 18
   3.5   -1      52       26177.48909 A       1  -2     0.5    -1.5             6.294 5.0990E-03 17
   3.5   -1     115        28603.9877 A       2  -2    -0.5    -2.5             5.802 5.1960E-03 15
   3.5   -1     121       28709.98392 A       2  -2     0.5    -1.5             5.401 5.1960E-03 13
   3.5   -1     165       30927.70279 A       3  -2    -0.5    -2.5             2.942 5.2920E-03 4
   3.5   -1     168       31027.16548 A       3  -2     0.5    -1.5             2.548 5.2920E-03 3
   3.5   -1     192       33007.93242 A       4  -2    -0.5    -2.5             0.022 5.0000E-01 2
   3.5   -1     195       33100.14871 A       4  -2     0.5    -1.5             0.016 5.0000E-01 1
   3.5   -1     213       34804.51038 A       5  -2    -0.5    -2.5             0.022 5.0000E-01 2
   4.5    1      40       23449.77396 A       0   2     0.5     2.5           645.046 5.0020E-03 19
   4.5    1      42       23595.47126 A       0   2    -0.5     1.5          1952.843 1.7370E-03 21
   4.5    1      50       26176.68827 A       1   2     0.5     2.5             5.983 5.1010E-03 17
   4.5    1      54       26315.67063 A       1   2    -0.5     1.5             6.159 5.0990E-03 18
   4.5    1     119       28709.18359 A       2   2     0.5     2.5             5.136 5.1960E-03 13
   4.5    1     124       28840.85625 A       2   2    -0.5     1.5             5.330 5.1960E-03 14
   4.5    1     167       31026.40738 A       3   2     0.5     2.5             2.797 5.2920E-03 4
   4.5    1     169       31149.97418 A       3   2    -0.5     1.5             2.423 5.2920E-03 3
   4.5    1     193       33099.30155 A       4   2     0.5     2.5             0.015 5.0000E-01 1
   4.5    1     196       33213.51268 A       4   2    -0.5     1.5             0.015 5.0000E-01 1
   4.5    1     214       34886.87782 A       5   2     0.5     2.5             0.021 5.0000E-01 2
   4.5   -1      39        23449.7737 A       0  -2    -0.5    -2.5           610.152 5.0020E-03 17
   4.5   -1      41       23595.47151 A       0  -2     0.5    -1.5          1828.619 1.8550E-03 21
   4.5   -1      50       26176.69125 A       1  -2    -0.5    -2.5             6.325 5.1010E-03 19
   4.5   -1      54       26315.67185 A       1  -2     0.5    -1.5             5.432 5.0990E-03 14
   4.5   -1     118       28709.17258 A       2  -2    -0.5    -2.5             5.517 5.1960E-03 15
   4.5   -1     125       28840.87165 A       2  -2     0.5    -1.5             3.849 6.6620E-03 12
   4.5   -1     166       31026.41032 A       3  -2    -0.5    -2.5             2.423 5.2920E-03 3
   4.5   -1     169        31149.9628 A       3  -2     0.5    -1.5             2.423 5.2920E-03 3
   4.5   -1     214       34887.00654 A       5  -2    -0.5    -2.5             0.021 5.0000E-01 2
   5.5    1      40       23594.87837 A       0   2     0.5     2.5          1386.274 2.2940E-03 20
   5.5    1      41        23768.9774 A       0   2    -0.5     1.5           619.670 5.0020E-03 19
   5.5    1      51       26315.08525 A       1   2     0.5     2.5             5.576 5.1010E-03 16
   5.5    1      54       26481.12862 A       1   2    -0.5     1.5             5.399 5.1010E-03 15
   5.5    1     122       28840.29741 A       2   2     0.5     2.5             5.298 5.1980E-03 15
   5.5    1     129       28997.56991 A       2   2    -0.5     1.5             4.845 5.2920E-03 13
   5.5    1     168        31149.4195 A       3   2     0.5     2.5             2.327 5.2940E-03 3
   5.5    1     170       31296.88999 A       3   2    -0.5     1.5             2.327 5.2920E-03 3
   5.5    1     196       33348.95474 A       4   2    -0.5     1.5             0.014 5.0000E-01 1
   5.5    1     214       34989.09438 A       5   2     0.5     2.5             0.014 5.0000E-01 1
   5.5   -1      40       23594.87843 A       0  -2    -0.5    -2.5           632.311 4.9020E-03 19
   5.5   -1      42       23768.97695 A       0  -2     0.5    -1.5          1351.173 2.2940E-03 19
   5.5   -1      52       26315.08908 A       1  -2    -0.5    -2.5             5.216 5.1010E-03 14
   5.5   -1      55       26481.12899 A       1  -2     0.5    -1.5             5.399 5.1010E-03 15
   5.5   -1     123       28840.29956 A       2  -2    -0.5    -2.5             2.839 8.6770E-03 12
   5.5   -1     129       28997.55439 A       2  -2     0.5    -1.5             4.031 5.2920E-03 9
   5.5   -1     167        31149.4132 A       3  -2    -0.5    -2.5             1.900 5.2930E-03 2
   5.5   -1     171       31296.89231 A       3  -2     0.5    -1.5             2.327 5.2920E-03 3
   5.5   -1     195        33212.9289 A       4  -2    -0.5    -2.5             0.014 5.0000E-01 1
   5.5   -1     196       33347.14457 A       4  -2     0.5    -1.5             0.014 5.0000E-01 1
   5.5   -1     214       34988.98621 A       5  -2    -0.5    -2.5             0.014 5.0000E-01 1
   6.5    1      40       23768.55229 A       0   2     0.5     2.5           555.887 5.1010E-03 17
   6.5    1      42       23970.87413 A       0   2    -0.5     1.5          1583.717 1.7370E-03 16
   6.5    1      53       26480.70487 A       1   2     0.5     2.5             5.222 5.1010E-03 15
   6.5    1      55       26673.61107 A       1   2    -0.5     1.5             4.863 5.2920E-03 14
   6.5    1     127       28997.17195 A       2   2     0.5     2.5             4.777 5.3870E-03 14
   6.5    1     134       29179.83894 A       2   2    -0.5     1.5             4.037 5.3870E-03 10
   6.5    1     169       31296.48632 A       3   2     0.5     2.5             2.250 5.2940E-03 3
   6.5    1     172       31467.68483 A       3   2    -0.5     1.5             1.329 7.3180E-03 2
   6.5    1     198        33506.5815 A       4   2    -0.5     1.5             0.014 5.0000E-01 1
   6.5    1     215        35111.6969 A       5   2     0.5     2.5             0.014 5.0000E-01 1
   6.5    1     217       35252.68687 A       5   2    -0.5     1.5             0.014 5.0000E-01 1
   6.5   -1      40       23768.55141 A       0  -2    -0.5    -2.5           561.329 5.1980E-03 18
   6.5   -1      42       23970.87608 A       0  -2     0.5    -1.5          1302.583 2.2400E-03 18
   6.5   -1      53       26480.70491 A       1  -2    -0.5    -2.5             4.770 5.1980E-03 13
   6.5   -1      55       26673.61547 A       1  -2     0.5    -1.5             5.045 5.1010E-03 14
   6.5   -1     127       28997.17514 A       2  -2    -0.5    -2.5             4.770 5.1980E-03 13
   6.5   -1     135       29179.84035 A       2  -2     0.5    -1.5             2.405 8.5770E-03 9
   6.5   -1     169        31296.4851 A       3  -2    -0.5    -2.5             2.250 5.2930E-03 3
   6.5   -1     172       31467.68738 A       3  -2     0.5    -1.5             2.251 5.2920E-03 3
   6.5   -1     195       33348.63848 A       4  -2    -0.5    -2.5             0.014 5.0000E-01 1
   6.5   -1     198       33506.58457 A       4  -2     0.5    -1.5             0.014 5.0000E-01 1
   6.5   -1     213       35110.77755 A       5  -2    -0.5    -2.5             0.019 5.0000E-01 2
   7.5    1      40       23970.58227 A       0   2     0.5     2.5          1248.622 2.1410E-03 16
   7.5    1      42       24200.89384 A       0   2    -0.5     1.5          1042.222 2.5650E-03 16
   7.5    1      53       26673.32605 A       1   2     0.5     2.5             4.552 5.2940E-03 13
   7.5    1      55       26892.86107 A       1   2    -0.5     1.5             4.553 5.2930E-03 13
   7.5    1     131       29179.54663 A       2   2     0.5     2.5             4.115 5.3870E-03 11
   7.5    1     138       29387.37255 A       2   2    -0.5     1.5             1.734 1.0200E-02 7
   7.5    1     171        31467.3981 A       3   2     0.5     2.5             2.187 5.2940E-03 3
   7.5    1     175       31662.03595 A       3   2    -0.5     1.5             1.786 5.2930E-03 2
   7.5    1     196        33506.1073 A       4   2     0.5     2.5             0.013 5.0000E-01 1
   7.5    1     199       33685.51611 A       4   2    -0.5     1.5             0.013 5.0000E-01 1
   7.5    1     214        35252.5631 A       5   2     0.5     2.5             0.019 5.0000E-01 2
   7.5    1     217       35412.78467 A       5   2    -0.5     1.5             0.013 5.0000E-01 1
   7.5   -1      41       23970.58376 A       0  -2    -0.5    -2.5          1287.050 2.1410E-03 17
   7.5   -1      42       24200.89286 A       0  -2     0.5    -1.5          1676.157 1.7380E-03 19
   7.5   -1      54       26673.31343 A       1  -2    -0.5    -2.5             4.642 5.3870E-03 14
   7.5   -1      55       26892.86223 A       1  -2     0.5    -1.5             4.553 5.2930E-03 13
   7.5   -1     132       29179.54364 A       2  -2    -0.5    -2.5             4.188 5.2930E-03 11
   7.5   -1     138       29387.34683 A       2  -2     0.5    -1.5             2.201 8.0340E-03 7
   7.5   -1     171       31467.40586 A       3  -2    -0.5    -2.5             2.187 5.2930E-03 3
   7.5   -1     174       31662.02646 A       3  -2     0.5    -1.5             2.187 5.2930E-03 3
   7.5   -1     197       33506.17848 A       4  -2    -0.5    -2.5             0.013 5.0000E-01 1
   7.5   -1     199       33685.66358 A       4  -2     0.5    -1.5             0.013 5.0000E-01 1
   7.5   -1     215       35252.28546 A       5  -2    -0.5    -2.5             0.013 5.0000E-01 1
   7.5   -1     218        35412.7417 A       5  -2     0.5    -1.5             0.013 5.0000E-01 1
   8.5    1      41       24200.70986 A       0   2     0.5     2.5          1199.220 2.2410E-03 17
   8.5    1      42       24458.73027 A       0   2    -0.5     1.5          1016.457 2.5650E-03 16
   8.5    1      54       26892.67427 A       1   2     0.5     2.5             4.607 5.2940E-03 14
   8.5    1      55       27138.55667 A       1   2    -0.5     1.5             4.191 5.3870E-03 12
   8.5    1     136       29387.20201 A       2   2     0.5     2.5             3.630 5.3870E-03 9
   8.5    1     141       29619.80656 A       2   2    -0.5     1.5             2.617 5.5690E-03 5
   8.5    1     173       31661.86193 A       3   2     0.5     2.5             0.322 2.8650E-02 2
   8.5    1     198       33685.38144 A       4   2     0.5     2.5             0.013 5.0000E-01 1
   8.5    1     216       35412.57778 A       5   2     0.5     2.5             0.013 5.0000E-01 1
   8.5    1     218       35591.48128 A       5   2    -0.5     1.5             0.013 5.0000E-01 1
   8.5   -1      40       24200.71117 A       0  -2    -0.5    -2.5           579.394 4.3570E-03 15
   8.5   -1      42        24458.7331 A       0  -2     0.5    -1.5          1199.220 2.2410E-03 17
   8.5   -1      53       26892.67203 A       1  -2    -0.5    -2.5             4.265 5.2940E-03 12
   8.5   -1      55       27138.55664 A       1  -2     0.5    -1.5             4.266 5.2930E-03 12
   8.5   -1     136       29387.16265 A       2  -2    -0.5    -2.5             3.826 5.3870E-03 10
   8.5   -1     142       29619.79246 A       2  -2     0.5    -1.5             2.867 5.5690E-03 6
   8.5   -1     172       31661.84347 A       3  -2    -0.5    -2.5             0.726 1.2700E-02 2
   8.5   -1     176       31879.57525 A       3  -2     0.5    -1.5             1.742 5.2930E-03 2
   8.5   -1     198       33685.48603 A       4  -2    -0.5    -2.5             0.013 5.0000E-01 1
   8.5   -1     201       33885.77173 A       4  -2     0.5    -1.5             0.013 5.0000E-01 1
   8.5   -1     215       35412.68733 A       5  -2    -0.5    -2.5             0.018 5.0000E-01 2
   8.5   -1     216       35591.62321 A       5  -2     0.5    -1.5             0.013 5.0000E-01 1
   9.5    1      40       24458.64527 A       0   2     0.5     2.5           993.708 2.5660E-03 16
   9.5    1      42       24744.05641 A       0   2    -0.5     1.5           897.347 2.9290E-03 17
   9.5    1      54       27138.46437 A       1   2     0.5     2.5             3.679 5.4790E-03 10
   9.5    1      57       27410.34989 A       1   2    -0.5     1.5             3.679 5.4790E-03 10
   9.5    1     140       29619.68764 A       2   2     0.5     2.5             3.237 5.5700E-03 8
   9.5    1     145       29876.79988 A       2   2    -0.5     1.5             3.028 5.5700E-03 7
   9.5    1     178       32119.90854 A       3   2    -0.5     1.5             1.163 5.4790E-03 1
   9.5    1     199       33885.55251 A       4   2     0.5     2.5             0.018 5.0000E-01 2
   9.5    1     215       35591.25133 A       5   2     0.5     2.5             0.013 5.0000E-01 1
   9.5    1     217       35788.09833 A       5   2    -0.5     1.5             0.013 5.0000E-01 1
   9.5   -1      41       24458.64905 A       0  -2    -0.5    -2.5           993.708 2.5660E-03 16
   9.5   -1      42        24744.0654 A       0  -2     0.5    -1.5          1024.690 2.5650E-03 17
   9.5   -1      54       27138.45891 A       1  -2    -0.5    -2.5             4.030 5.4790E-03 12
   9.5   -1      57       27410.35279 A       1  -2     0.5    -1.5             4.030 5.4790E-03 12
   9.5   -1     140       29619.70885 A       2  -2    -0.5    -2.5             3.433 5.5700E-03 9
   9.5   -1     146        29876.6978 A       2  -2     0.5    -1.5             0.119 1.2000E-01 5
   9.5   -1     175       31879.47385 A       3  -2    -0.5    -2.5             1.163 5.4790E-03 1
   9.5   -1     200        33885.6288 A       4  -2    -0.5    -2.5             0.013 5.0000E-01 1
   9.5   -1     202       34106.30726 A       4  -2     0.5    -1.5             0.013 5.0000E-01 1
   9.5   -1     215       35591.27384 A       5  -2    -0.5    -2.5             0.013 5.0000E-01 1
   9.5   -1     219       35789.07937 A       5  -2     0.5    -1.5             0.013 5.0000E-01 1
  10.5    1      41       24744.05896 A       0   2     0.5     2.5           853.302 2.9290E-03 16
  10.5    1      43       25056.50594 A       0   2    -0.5     1.5           913.192 2.6500E-03 15
  10.5    1      55       27410.33763 A       1   2     0.5     2.5             3.782 5.4790E-03 11
  10.5    1      58         27707.873 A       1   2    -0.5     1.5             3.606 5.4790E-03 10
  10.5    1     143         29876.743 A       2   2     0.5     2.5             0.306 5.0060E-02 6
  10.5    1     150        30157.9835 A       2   2    -0.5     1.5             0.279 5.0060E-02 5
  10.5    1     181       32377.32098 A       3   2    -0.5     1.5             0.012 5.0000E-01 1
  10.5    1     201       34106.30251 A       4   2     0.5     2.5             0.018 5.0000E-01 2
  10.5    1     215       35787.97491 A       5   2     0.5     2.5             0.018 5.0000E-01 2
  10.5    1     219       36001.70756 A       5   2    -0.5     1.5             0.012 5.0000E-01 1
  10.5   -1      40       24744.06077 A       0  -2    -0.5    -2.5           853.302 2.9290E-03 16
  10.5   -1      43       25056.51662 A       0  -2     0.5    -1.5           798.191 2.9290E-03 14
  10.5   -1      55       27410.33213 A       1  -2    -0.5    -2.5             3.782 5.4790E-03 11
  10.5   -1      58       27707.87164 A       1  -2     0.5    -1.5             3.782 5.4790E-03 11
  10.5   -1     144       29876.78242 A       2  -2    -0.5    -2.5             3.365 5.5700E-03 9
  10.5   -1     149       30157.92941 A       2  -2     0.5    -1.5             1.213 1.0300E-02 4
  10.5   -1     177       32119.93112 A       3  -2    -0.5    -2.5             0.604 1.0350E-02 1
  10.5   -1     201       34106.39503 A       4  -2    -0.5    -2.5             0.018 5.0000E-01 2
  10.5   -1     204       34352.22412 A       4  -2     0.5    -1.5             0.012 5.0000E-01 1
  10.5   -1     216       35788.22656 A       5  -2    -0.5    -2.5             0.018 5.0000E-01 2
  11.5    1      41       25056.58744 A       0   2     0.5     2.5           811.033 2.9300E-03 15
  11.5    1      44       25395.68357 A       0   2    -0.5     1.5           412.163 5.5700E-03 14
  11.5    1      56       27707.93098 A       1   2     0.5     2.5             3.429 5.6590E-03 10
  11.5    1      61       28030.71786 A       1   2    -0.5     1.5             3.429 5.6590E-03 10
  11.5    1     148       30158.09677 A       2   2     0.5     2.5             1.320 1.0390E-02 5
  11.5    1     154       30462.85619 A       2   2    -0.5     1.5             0.274 5.0060E-02 5
  11.5    1     184       32673.12385 A       3   2    -0.5     1.5             0.012 5.0000E-01 1
  11.5    1     203       34347.35946 A       4   2     0.5     2.5             0.017 5.0000E-01 2
  11.5    1     216       36002.24998 A       5   2     0.5     2.5             0.012 5.0000E-01 1
  11.5    1     218       36231.62764 A       5   2    -0.5     1.5             0.012 5.0000E-01 1
  11.5   -1      41       25056.58889 A       0  -2    -0.5    -2.5           791.054 3.0040E-03 15
  11.5   -1      44       25395.68921 A       0  -2     0.5    -1.5           381.589 5.5700E-03 12
  11.5   -1      57       27707.93986 A       1  -2    -0.5    -2.5             3.596 5.6590E-03 11
  11.5   -1      61       28030.71159 A       1  -2     0.5    -1.5             3.596 5.6590E-03 11
  11.5   -1     148       30157.91223 A       2  -2    -0.5    -2.5             1.180 1.2740E-02 6
  11.5   -1     154       30462.89595 A       2  -2     0.5    -1.5             0.300 5.0060E-02 6
  11.5   -1     180       32382.79123 A       3  -2    -0.5    -2.5             0.012 5.0000E-01 1
  11.5   -1     184       32661.08115 A       3  -2     0.5    -1.5             0.012 5.0000E-01 1
  11.5   -1     203       34347.47193 A       4  -2    -0.5    -2.5             0.012 5.0000E-01 1
  11.5   -1     220       36231.73013 A       5  -2     0.5    -1.5             0.012 5.0000E-01 1
  12.5    1      42       25395.82877 A       0   2     0.5     2.5           350.968 6.1990E-03 13
  12.5    1      44       25761.15294 A       0   2    -0.5     1.5           378.638 5.7460E-03 13
  12.5    1      59       28030.84177 A       1   2     0.5     2.5             3.271 5.8330E-03 10
  12.5    1      92       28378.42491 A       1   2    -0.5     1.5             2.384 5.6590E-03 5
  12.5    1     152       30463.01509 A       2   2     0.5     2.5             0.295 5.0080E-02 6
  12.5    1     158       30790.97677 A       2   2    -0.5     1.5             0.238 6.6960E-02 7
  12.5    1     182       32667.48701 A       3   2     0.5     2.5             0.012 5.0000E-01 1
  12.5    1     187        32966.1579 A       3   2    -0.5     1.5             0.012 5.0000E-01 1
  12.5    1     204       34607.88019 A       4   2     0.5     2.5             0.007 8.6600E-01 1
  12.5    1     208       34886.85668 A       4   2    -0.5     1.5             0.012 5.0000E-01 1
  12.5    1     216       36232.36967 A       5   2     0.5     2.5             0.012 5.0000E-01 1
  12.5    1     220       36477.42333 A       5   2    -0.5     1.5             0.017 5.0000E-01 2
  12.5   -1      42       25395.82986 A       0  -2    -0.5    -2.5           297.028 5.7460E-03 8
  12.5   -1      44       25761.15586 A       0  -2     0.5    -1.5           363.784 5.7460E-03 12
  12.5   -1      60       28030.83842 A       1  -2    -0.5    -2.5             3.199 5.6590E-03 9
  12.5   -1      90       28378.40613 A       1  -2     0.5    -1.5             3.103 5.8330E-03 9
  12.5   -1     152        30462.9376 A       2  -2    -0.5    -2.5             0.228 6.9970E-02 7
  12.5   -1     157       30791.01875 A       2  -2     0.5    -1.5             0.161 9.1640E-02 6
  12.5   -1     205       34608.07193 A       4  -2    -0.5    -2.5             0.012 5.0000E-01 1
  12.5   -1     217       36232.05723 A       5  -2    -0.5    -2.5             0.017 5.0000E-01 2
  12.5   -1     218       36477.37768 A       5  -2     0.5    -1.5             0.012 5.0000E-01 1
  13.5    1      43       25761.35767 A       0   2     0.5     2.5           285.449 7.2110E-03 12
  13.5    1      44       26152.43927 A       0   2    -0.5     1.5           372.854 5.7460E-03 13
  13.5    1      88       28378.58432 A       1   2     0.5     2.5             2.639 6.7550E-03 9
  13.5    1     108       28750.47752 A       1   2    -0.5     1.5             2.695 5.8330E-03 7
  13.5    1     156       30791.20219 A       2   2     0.5     2.5             0.213 7.3950E-02 7
  13.5    1     162       31141.72658 A       2   2    -0.5     1.5             0.291 5.0080E-02 6
  13.5    1     189       33307.23065 A       3   2    -0.5     1.5             0.012 5.0000E-01 1
  13.5    1     206       34887.22019 A       4   2     0.5     2.5             0.007 8.6600E-01 1
  13.5    1     217       36477.96815 A       5   2     0.5     2.5             0.017 5.0000E-01 2
  13.5    1     219       36737.59938 A       5   2    -0.5     1.5             0.012 5.0000E-01 1
  13.5   -1      43       25761.36382 A       0  -2    -0.5    -2.5           358.165 5.7470E-03 12
  13.5   -1      44       26152.44916 A       0  -2     0.5    -1.5           317.511 5.9180E-03 10
  13.5   -1      88       28378.57929 A       1  -2    -0.5    -2.5             3.175 5.9180E-03 10
  13.5   -1     108       28750.46625 A       1  -2     0.5    -1.5             3.056 5.8330E-03 9
  13.5   -1     156       30791.27573 A       2  -2    -0.5    -2.5             0.265 5.0080E-02 5
  13.5   -1     161       31141.52081 A       2  -2     0.5    -1.5             0.265 5.0100E-02 5
  13.5   -1     184       32973.28819 A       3  -2    -0.5    -2.5             0.012 5.0000E-01 1
  13.5   -1     217        36478.0388 A       5  -2    -0.5    -2.5             0.012 5.0000E-01 1
  13.5   -1     219       36737.43578 A       5  -2     0.5    -1.5             0.012 5.0000E-01 1
  14.5    1      43       26152.71241 A       0   2     0.5     2.5           274.753 7.0710E-03 11
  14.5    1      46       26569.04884 A       0   2    -0.5     1.5           248.523 7.0710E-03 9
  14.5    1     105       28750.72694 A       1   2     0.5     2.5             1.484 1.0440E-02 7
  14.5    1     120        29146.3902 A       1   2    -0.5     1.5             2.840 5.8330E-03 8
  14.5    1     159       31142.16163 A       2   2     0.5     2.5             0.102 1.4110E-01 6
  14.5    1     166       31514.85739 A       2   2    -0.5     1.5             0.224 6.3980E-02 6
  14.5    1     187       33299.92837 A       3   2     0.5     2.5             0.012 5.0000E-01 1
  14.5    1     191       33646.36065 A       3   2    -0.5     1.5             0.012 5.0000E-01 1
  14.5    1     209       35184.73019 A       4   2     0.5     2.5             0.017 5.0000E-01 2
  14.5    1     217       36738.23288 A       5   2     0.5     2.5             0.012 5.0000E-01 1
  14.5   -1      43       26152.70797 A       0  -2    -0.5    -2.5           313.005 5.9180E-03 10
  14.5   -1      45       26569.05368 A       0  -2     0.5    -1.5           328.283 5.9180E-03 11
  14.5   -1     105        28750.7206 A       1  -2    -0.5    -2.5             1.629 1.0790E-02 9
  14.5   -1     121       29146.39049 A       1  -2     0.5    -1.5             2.657 5.8330E-03 7
  14.5   -1     158       31142.03766 A       2  -2    -0.5    -2.5             0.236 5.5590E-02 5
  14.5   -1     165       31514.86448 A       2  -2     0.5    -1.5             0.261 5.0100E-02 5
  14.5   -1     187       33299.92954 A       3  -2    -0.5    -2.5             0.017 5.0000E-01 2
  14.5   -1     208       35184.89932 A       4  -2    -0.5    -2.5             0.017 5.0000E-01 2
  14.5   -1     217       36737.70609 A       5  -2    -0.5    -2.5             0.007 8.6600E-01 1
  15.5    1      43       26569.37426 A       0   2     0.5     2.5           258.495 7.0710E-03 10
  15.5    1      47       27010.44999 A       0   2    -0.5     1.5           271.112 7.0710E-03 11
  15.5    1     117       29146.67846 A       1   2     0.5     2.5             1.015 1.5070E-02 7
  15.5    1     129       29565.61803 A       1   2    -0.5     1.5             1.856 8.2380E-03 7
  15.5    1     163       31515.10641 A       2   2     0.5     2.5             0.282 5.0270E-02 6
  15.5    1     170       31909.47878 A       2   2    -0.5     1.5             0.283 5.0100E-02 6
  15.5    1     189       33646.57837 A       3   2     0.5     2.5             0.012 5.0000E-01 1
  15.5    1     195       34012.32891 A       3   2    -0.5     1.5             0.012 5.0000E-01 1
  15.5    1     209       35499.65354 A       4   2     0.5     2.5             0.016 5.0000E-01 2
  15.5   -1      43       26569.37629 A       0  -2    -0.5    -2.5           219.642 8.7280E-03 11
  15.5   -1      47       27010.45828 A       0  -2     0.5    -1.5           323.933 5.9180E-03 11
  15.5   -1     119       29146.70604 A       1  -2    -0.5    -2.5             1.262 1.1220E-02 6
  15.5   -1     130       29565.59936 A       1  -2     0.5    -1.5             1.451 1.0540E-02 7
  15.5   -1     162       31515.05719 A       2  -2    -0.5    -2.5             0.127 1.1110E-01 6
  15.5   -1     170       31909.14455 A       2  -2     0.5    -1.5             0.216 5.9700E-02 5
  15.5   -1     194       34003.01199 A       3  -2     0.5    -1.5             0.012 5.0000E-01 1
  15.5   -1     210       35499.66895 A       4  -2    -0.5    -2.5             0.016 5.0000E-01 2
  15.5   -1     212       35830.73465 A       4  -2     0.5    -1.5             0.012 5.0000E-01 1
  16.5    1      45       27010.83058 A       0   2     0.5     2.5           320.694 6.1660E-03 12
  16.5    1      48        27476.0825 A       0   2    -0.5     1.5           296.698 6.0840E-03 10
  16.5    1     128       29565.95885 A       1   2     0.5     2.5             1.812 7.7150E-03 6
  16.5    1     137       30007.51877 A       1   2    -0.5     1.5             2.330 6.0020E-03 6
  16.5    1     167       31909.86488 A       2   2     0.5     2.5             0.056 2.6810E-01 7
  16.5    1     174       32324.70595 A       2   2    -0.5     1.5             0.254 5.0270E-02 5
  16.5    1     193       34012.77891 A       3   2     0.5     2.5             0.016 5.0000E-01 2
  16.5    1     197        34397.0917 A       3   2    -0.5     1.5             0.011 5.0000E-01 1
  16.5    1     211        35831.1369 A       4   2     0.5     2.5             0.011 5.0000E-01 1
  16.5   -1      44       27010.82207 A       0  -2    -0.5    -2.5           303.060 6.2470E-03 11
  16.5   -1      47       27476.08959 A       0  -2     0.5    -1.5           267.743 7.0710E-03 11
  16.5   -1     128       29565.94737 A       1  -2    -0.5    -2.5             1.111 1.2580E-02 6
  16.5   -1     136       30007.51666 A       1  -2     0.5    -1.5             2.127 6.0020E-03 5
  16.5   -1     166        31909.7108 A       2  -2    -0.5    -2.5             0.301 5.0140E-02 7
  16.5   -1     174       32324.71728 A       2  -2     0.5    -1.5             0.197 5.0270E-02 3
  16.5   -1     209       35830.96564 A       4  -2    -0.5    -2.5             0.016 5.0000E-01 2
  17.5    1      46         27476.501 A       0   2     0.5     2.5           252.297 7.0710E-03 10
  17.5    1      50        27965.3548 A       0   2    -0.5     1.5           264.611 7.0710E-03 11
  17.5    1     134       30007.90959 A       1   2     0.5     2.5             2.241 6.1660E-03 6
  17.5    1     143       30471.49082 A       1   2    -0.5     1.5             0.753 1.4990E-02 4
  17.5    1     171       32325.26631 A       2   2     0.5     2.5             0.275 5.0270E-02 6
  17.5    1     176       32760.57268 A       2   2    -0.5     1.5             0.170 5.7440E-02 3
  17.5    1     195       34397.48337 A       3   2     0.5     2.5             0.016 5.0000E-01 2
  17.5    1     211       36177.83575 A       4   2     0.5     2.5             0.016 5.0000E-01 2
  17.5    1     214       36538.61999 A       4   2    -0.5     1.5             0.011 5.0000E-01 1
  17.5   -1      46       27476.50039 A       0  -2    -0.5    -2.5           264.611 7.0710E-03 11
  17.5   -1      51       27965.36022 A       0  -2     0.5    -1.5           153.998 1.0990E-02 9
  17.5   -1     135       30007.93017 A       1  -2    -0.5    -2.5             2.090 7.1410E-03 7
  17.5   -1     143       30471.38354 A       1  -2     0.5    -1.5             0.224 5.0260E-02 4
  17.5   -1     171       32324.93622 A       2  -2    -0.5    -2.5             0.251 5.0270E-02 5
  17.5   -1     177       32760.36834 A       2  -2     0.5    -1.5             0.251 5.0270E-02 5
  17.5   -1     196        34397.2918 A       3  -2    -0.5    -2.5             0.011 5.0000E-01 1
  17.5   -1     200       34799.96921 A       3  -2     0.5    -1.5             0.011 5.0000E-01 1
  17.5   -1     212       36177.67464 A       4  -2    -0.5    -2.5             0.016 5.0000E-01 2
  17.5   -1     214       36539.04972 A       4  -2     0.5    -1.5             0.011 5.0000E-01 1
  18.5    1      48       27965.82206 A       0   2     0.5     2.5           201.370 9.1890E-03 11
  18.5    1      80       28477.62065 A       0   2    -0.5     1.5           223.167 7.0710E-03 8
  18.5    1     141       30471.92638 A       1   2     0.5     2.5             1.377 1.0720E-02 7
  18.5    1     150       30956.81954 A       1   2    -0.5     1.5             0.190 5.0970E-02 3
  18.5    1     174       32760.78574 A       2   2     0.5     2.5             0.206 6.0540E-02 5
  18.5    1     181       33215.60683 A       2   2    -0.5     1.5             0.192 5.0270E-02 3
  18.5    1     199       34800.13684 A       3   2     0.5     2.5             0.011 5.0000E-01 1
  18.5    1     204       35219.02702 A       3   2    -0.5     1.5             0.011 5.0000E-01 1
  18.5    1     213       36539.10475 A       4   2     0.5     2.5             0.011 5.0000E-01 1
  18.5    1     215       36913.03321 A       4   2    -0.5     1.5             0.011 5.0000E-01 1
  18.5   -1      47       27965.81626 A       0  -2    -0.5    -2.5           282.419 6.2470E-03 10
  18.5   -1      78       28477.63589 A       0  -2     0.5    -1.5           159.952 1.1030E-02 10
  18.5   -1     140       30471.95077 A       1  -2    -0.5    -2.5             0.212 5.8850E-02 5
  18.5   -1     150       30956.91148 A       1  -2     0.5    -1.5             0.994 1.1220E-02 4
  18.5   -1     174       32760.97727 A       2  -2    -0.5    -2.5             0.272 5.0270E-02 6
  18.5   -1     181       33215.65713 A       2  -2     0.5    -1.5             0.272 5.0270E-02 6
  18.5   -1     198       34799.97871 A       3  -2    -0.5    -2.5             0.016 5.0000E-01 2
  18.5   -1     204       35218.99294 A       3  -2     0.5    -1.5             0.011 5.0000E-01 1
  18.5   -1     212        36539.0399 A       4  -2    -0.5    -2.5             0.011 5.0000E-01 1
  18.5   -1     214        36912.8837 A       4  -2     0.5    -1.5             0.011 5.0000E-01 1
  19.5    1      74       28478.13198 A       0   2     0.5     2.5           234.225 7.0710E-03 9
  19.5    1     102       29012.27074 A       0   2    -0.5     1.5           210.392 7.8720E-03 9
  19.5    1     147       30957.34281 A       1   2     0.5     2.5             1.261 1.0720E-02 6
  19.5    1     155       31463.03276 A       1   2    -0.5     1.5             0.785 1.4060E-02 4
  19.5    1     177       33216.14431 A       2   2     0.5     2.5             0.125 8.8550E-02 4
  19.5    1     185       33689.25568 A       2   2    -0.5     1.5             0.190 5.0270E-02 3
  19.5    1     202       35219.46091 A       3   2     0.5     2.5             0.011 5.0000E-01 1
  19.5    1     213        36913.0368 A       4   2     0.5     2.5             0.011 5.0000E-01 1
  19.5    1     217        37298.7891 A       4   2    -0.5     1.5             0.011 5.0000E-01 1
  19.5   -1      75       28478.14236 A       0  -2    -0.5    -2.5           246.895 7.0710E-03 10
  19.5   -1     104       29012.27392 A       0  -2     0.5    -1.5           158.277 1.1030E-02 10
  19.5   -1     147       30957.22856 A       1  -2    -0.5    -2.5             0.291 5.0260E-02 7
  19.5   -1     156       31462.98321 A       1  -2     0.5    -1.5             0.108 7.2580E-02 2
  19.5   -1     178       33216.05106 A       2  -2    -0.5    -2.5             0.185 6.6800E-02 5
  19.5   -1     185       33689.41731 A       2  -2     0.5    -1.5             0.219 5.6340E-02 5
  19.5   -1     202       35219.24752 A       3  -2    -0.5    -2.5             0.011 5.0010E-01 1
  19.5   -1     206       35654.33294 A       3  -2     0.5    -1.5             0.011 5.0000E-01 1
  19.5   -1     212       36913.31884 A       4  -2    -0.5    -2.5             0.011 5.0000E-01 1
  19.5   -1     217       37298.83564 A       4  -2     0.5    -1.5             0.011 5.0000E-01 1
  20.5    1      99         29012.805 A       0   2     0.5     2.5           231.894 7.0710E-03 9
  20.5    1     117       29568.56743 A       0   2    -0.5     1.5           231.894 7.0710E-03 9
  20.5    1     152       31463.37162 A       1   2     0.5     2.5             0.188 5.0280E-02 3
  20.5    1     161       31988.89911 A       1   2    -0.5     1.5             0.070 1.1110E-01 2
  20.5    1     182       33689.58801 A       2   2     0.5     2.5             0.217 5.0270E-02 4
  20.5    1     188       34181.03471 A       2   2    -0.5     1.5             0.240 5.0980E-02 5
  20.5    1     204       35654.66091 A       3   2     0.5     2.5             0.011 5.0000E-01 1
  20.5    1     215       37299.19163 A       4   2     0.5     2.5             0.011 5.0000E-01 1
  20.5    1     221       37694.64494 A       4   2    -0.5     1.5             0.011 5.0000E-01 1
  20.5   -1      99       29012.80059 A       0  -2    -0.5    -2.5           163.972 1.0000E-02 9
  20.5   -1     118       29568.58603 A       0  -2     0.5    -1.5           218.632 7.0710E-03 8
  20.5   -1     153       31463.44604 A       1  -2    -0.5    -2.5             0.185 5.1180E-02 3
  20.5   -1     161       31988.96264 A       1  -2     0.5    -1.5             0.154 5.0260E-02 2
  20.5   -1     182       33689.69278 A       2  -2    -0.5    -2.5             0.200 6.6800E-02 6
  20.5   -1     188       34180.77954 A       2  -2     0.5    -1.5             0.240 5.0980E-02 5
  20.5   -1     204       35654.67572 A       3  -2    -0.5    -2.5             0.015 5.0010E-01 2
  20.5   -1     214       37299.22341 A       4  -2    -0.5    -2.5             0.011 5.0000E-01 1
  20.5   -1     220       37694.53902 A       4  -2     0.5    -1.5             0.011 5.0000E-01 1
  21.5    1     113       29569.15054 A       0   2     0.5     2.5           147.665 1.0370E-02 8
  21.5    1     128       30145.83726 A       0   2    -0.5     1.5           229.696 7.0710E-03 9
  21.5    1     159       31989.36097 A       1   2     0.5     2.5             0.074 1.4610E-01 4
  21.5    1     167       32534.18579 A       1   2    -0.5     1.5             0.152 5.0260E-02 2
  21.5    1     186       34181.29397 A       2   2     0.5     2.5             0.236 5.1190E-02 5
  21.5    1     191       34689.51057 A       2   2    -0.5     1.5             0.073 1.4910E-01 4
  21.5    1     205       36104.83497 A       3   2     0.5     2.5             0.015 5.0000E-01 2
  21.5    1     218       37695.03952 A       4   2     0.5     2.5             0.011 5.0010E-01 1
  21.5    1     224       38098.32176 A       4   2    -0.5     1.5             0.011 5.0000E-01 1
  21.5   -1     115       29569.15334 A       0  -2    -0.5    -2.5           242.120 7.0710E-03 10
  21.5   -1     128        30145.8333 A       0  -2     0.5    -1.5           229.696 7.0710E-03 9
  21.5   -1     158       31989.43397 A       1  -2    -0.5    -2.5             0.215 5.0260E-02 4
  21.5   -1     166       32534.18904 A       1  -2     0.5    -1.5             0.152 5.0260E-02 2
  21.5   -1     186        34181.4135 A       2  -2    -0.5    -2.5             0.155 8.5360E-02 6
  21.5   -1     192       34689.54466 A       2  -2     0.5    -1.5             0.107 5.0390E-02 1
  21.5   -1     204       36104.83299 A       3  -2    -0.5    -2.5             0.015 5.0000E-01 2
  21.5   -1     219       37694.93291 A       4  -2    -0.5    -2.5             0.011 5.0000E-01 1
  22.5    1     126       30146.45601 A       0   2     0.5     2.5           190.321 7.9730E-03 8
  22.5    1     136       30743.30049 A       0   2    -0.5     1.5           174.257 8.7080E-03 8
  22.5    1     164       32534.75487 A       1   2     0.5     2.5             0.213 5.0260E-02 4
  22.5    1     172       33097.86041 A       1   2    -0.5     1.5             0.151 5.0260E-02 2
  22.5    1     189        34689.9188 A       2   2     0.5     2.5             0.233 5.6280E-02 6
  22.5    1     196       35213.82869 A       2   2    -0.5     1.5             0.107 5.0270E-02 1
  22.5    1     205        36568.6451 A       3   2     0.5     2.5             0.015 5.0000E-01 2
  22.5    1     209       37044.39869 A       3   2    -0.5     1.5             0.011 5.0000E-01 1
  22.5    1     222       38098.66392 A       4   2     0.5     2.5             0.011 5.0020E-01 1
  22.5   -1     125       30146.43495 A       0  -2    -0.5    -2.5           214.599 7.0710E-03 8
  22.5   -1     137       30743.29598 A       0  -2     0.5    -1.5           169.655 7.0710E-03 5
  22.5   -1     164       32534.61187 A       1  -2    -0.5    -2.5             0.210 5.1180E-02 4
  22.5   -1     172       33097.86052 A       1  -2     0.5    -1.5             0.151 5.0260E-02 2
  22.5   -1     195       35213.89019 A       2  -2     0.5    -1.5             0.119 1.0050E-01 5
  22.5   -1     206       36568.58781 A       3  -2    -0.5    -2.5             0.015 5.0000E-01 2
  22.5   -1     208       37044.12211 A       3  -2     0.5    -1.5             0.011 5.0000E-01 1
  22.5   -1     233       38507.43653 A       8  -2     0.5    -1.5             0.011 5.0010E-01 1
  23.5    1     133       30743.94206 A       0   2     0.5     2.5           129.124 1.1650E-02 8
  23.5    1     143       31360.24527 A       0   2    -0.5     1.5           121.639 1.0710E-02 6
  23.5    1     169       33098.20623 A       1   2     0.5     2.5             0.212 5.0260E-02 4
  23.5    1     176       33679.02833 A       1   2    -0.5     1.5             0.146 6.3310E-02 3
  23.5    1     193       35214.45776 A       2   2     0.5     2.5             0.015 5.0000E-01 2
  23.5    1     198       35753.07001 A       2   2    -0.5     1.5             0.090 8.3660E-02 2
  23.5    1     206       37044.72398 A       3   2     0.5     2.5             0.011 5.0010E-01 1
  23.5   -1     135       30743.93708 A       0  -2    -0.5    -2.5            50.711 2.5690E-02 6
  23.5   -1     145        31360.2195 A       0  -2     0.5    -1.5           122.147 1.1520E-02 7
  23.5   -1     169       33098.30709 A       1  -2    -0.5    -2.5             0.183 5.0260E-02 3
  23.5   -1     178       33679.12743 A       1  -2     0.5    -1.5             0.011 5.0000E-01 1
  23.5   -1     193       35214.22333 A       2  -2    -0.5    -2.5             0.259 5.0270E-02 6
  23.5   -1     198       35752.41743 A       2  -2     0.5    -1.5             0.106 5.0270E-02 1
  23.5   -1     205       37044.81814 A       3  -2    -0.5    -2.5             0.011 5.0000E-01 1
  23.5   -1     231       38507.73487 A       8  -2    -0.5    -2.5             0.011 5.0000E-01 1
  23.5   -1     243       38918.37653 A      11  -2     0.5    -1.5             0.011 5.0010E-01 1
  24.5    1     141       31360.84696 A       0   2     0.5     2.5            28.608 4.5160E-02 6
  24.5    1     151       31995.82166 A       0   2    -0.5     1.5            94.353 1.1180E-02 4
  24.5    1     174       33679.47207 A       1   2     0.5     2.5             0.182 5.0260E-02 3
  24.5    1     196       35753.88135 A       2   2     0.5     2.5             0.037 2.5010E-01 3
  24.5    1     201       36304.09313 A       2   2    -0.5     1.5             0.104 5.0740E-02 1
  24.5    1     216       38027.02639 A       3   2    -0.5     1.5             0.015 5.0000E-01 2
  24.5   -1     142       31360.86804 A       0  -2    -0.5    -2.5           182.710 7.0710E-03 6
  24.5   -1     151       31995.79897 A       0  -2     0.5    -1.5           166.790 7.0710E-03 5
  24.5   -1     175       33679.52275 A       1  -2    -0.5    -2.5             0.093 9.8300E-02 3
  24.5   -1     182       34276.73891 A       1  -2     0.5    -1.5             0.210 5.0260E-02 4
  24.5   -1     196       35753.74083 A       2  -2    -0.5    -2.5             0.011 5.0000E-01 1
  24.5   -1     200       36306.13744 A       2  -2     0.5    -1.5             0.148 5.0270E-02 2
  24.5   -1     215       38027.09743 A       3  -2     0.5    -1.5             0.011 5.0000E-01 1
  24.5   -1     238       38918.67487 A      11  -2    -0.5    -2.5             0.011 5.0000E-01 1
  25.5    1     148       31996.51009 A       0   2     0.5     2.5            81.061 1.1180E-02 3
  25.5    1     158        32649.1703 A       0   2    -0.5     1.5            20.825 5.0250E-02 4
  25.5    1     180       34277.32073 A       1   2     0.5     2.5             0.010 5.0000E-01 1
  25.5    1     187       34890.04114 A       1   2    -0.5     1.5             0.180 5.0260E-02 3
  25.5    1     199       36306.89466 A       2   2     0.5     2.5             0.015 5.0000E-01 2
  25.5    1     202       36871.66155 A       2   2    -0.5     1.5             0.208 5.0270E-02 4
  25.5    1     213       38027.42336 A       3   2     0.5     2.5             0.015 5.0000E-01 2
  25.5    1     225        38529.8436 A       6   2    -0.5     1.5             0.015 5.0000E-01 2
  25.5   -1     149       31996.51519 A       0  -2    -0.5    -2.5           147.993 7.0710E-03 4
  25.5   -1     158       32649.16252 A       0  -2     0.5    -1.5            18.035 5.0250E-02 3
  25.5   -1     180       34277.27771 A       1  -2    -0.5    -2.5             0.208 5.0260E-02 4
  25.5   -1     198       36306.71158 A       2  -2    -0.5    -2.5             0.156 6.7200E-02 4
  25.5   -1     202       36869.26404 A       2  -2     0.5    -1.5             0.104 5.0270E-02 1
  25.5   -1     214       38027.40538 A       3  -2    -0.5    -2.5             0.010 5.0000E-01 1
  26.5    1     156       32649.86346 A       0   2     0.5     2.5           103.847 1.1180E-02 5
  26.5    1     164        33319.4524 A       0   2    -0.5     1.5            92.884 1.1180E-02 4
  26.5    1     185       34890.66251 A       1   2     0.5     2.5             0.207 5.0260E-02 4
  26.5    1     200       36872.27293 A       2   2     0.5     2.5             0.179 5.0270E-02 3
  26.5    1     223       38530.29179 A       6   2     0.5     2.5             0.015 5.0000E-01 2
  26.5   -1     155       32649.73205 A       0  -2    -0.5    -2.5             5.688 1.2910E-01 2
  26.5   -1     165       33319.43342 A       0  -2     0.5    -1.5            16.224 5.5430E-02 3
  26.5   -1     184       34890.66868 A       1  -2    -0.5    -2.5             0.010 5.0000E-01 1
  26.5   -1     192       35517.93306 A       1  -2     0.5    -1.5             0.146 5.0260E-02 2
  26.5   -1     200       36872.23273 A       2  -2    -0.5    -2.5             0.010 5.0000E-01 1
  26.5   -1     236       39037.21904 A      10  -2     0.5    -1.5             0.010 5.0000E-01 1
  27.5    1     161       33320.17983 A       0   2     0.5     2.5            79.846 1.1180E-02 3
  27.5    1     171       34005.68742 A       0   2    -0.5     1.5            11.297 9.1240E-02 4
  27.5    1     188        35518.6784 A       1   2     0.5     2.5             0.015 5.0000E-01 2
  27.5    1     194       36159.57429 A       1   2    -0.5     1.5             0.052 1.4110E-01 2
  27.5    1     234        39038.0667 A      10   2     0.5     2.5             0.010 5.0010E-01 1
  27.5   -1     163       33320.21461 A       0  -2    -0.5    -2.5           103.081 1.1180E-02 5
  27.5   -1     189       35518.64802 A       1  -2    -0.5    -2.5             0.178 5.0260E-02 3
  27.5   -1     204       37449.54297 A       2  -2    -0.5    -2.5             0.010 5.0000E-01 1
  27.5   -1     210       38035.17137 A       2  -2     0.5    -1.5             0.010 5.0000E-01 1
  27.5   -1     233       39037.46785 A      10  -2    -0.5    -2.5             0.010 5.0000E-01 1
  28.5    1     169       34006.58116 A       0   2     0.5     2.5            12.593 7.0380E-02 3
  28.5    1     191       36160.15119 A       1   2     0.5     2.5             0.047 1.5510E-01 2
  28.5    1     208        38035.6362 A       2   2     0.5     2.5             0.010 5.0000E-01 1
  28.5    1     220       38629.22599 A       6   2     0.5     2.5             0.010 5.0010E-01 1
  28.5   -1     167       34006.30807 A       0  -2    -0.5    -2.5            10.183 5.0250E-02 1
  28.5   -1     177       34707.06809 A       0  -2     0.5    -1.5             6.326 1.4010E-01 3
  28.5   -1     191       36160.11868 A       1  -2    -0.5    -2.5             0.010 5.0000E-01 1
  28.5   -1     197       36813.29452 A       1  -2     0.5    -1.5             0.176 5.0260E-02 3
  28.5   -1     208        38035.2254 A       2  -2    -0.5    -2.5             0.014 5.0000E-01 2
  29.5    1     174       34708.01373 A       0   2     0.5     2.5             1.016 5.0000E-01 1
  29.5    1     181        35422.8847 A       0   2    -0.5     1.5             5.491 1.8510E-01 4
  29.5    1     193       36813.53607 A       1   2     0.5     2.5             0.010 5.0000E-01 1
  29.5    1     199       37478.29189 A       1   2    -0.5     1.5             0.032 2.7100E-01 3
  29.5    1     217       38629.39916 A       5   2     0.5     2.5             0.010 5.0000E-01 1
  29.5    1     233       39229.56324 A      10   2    -0.5     1.5             0.010 5.0000E-01 1
  29.5   -1     175       34708.09534 A       0  -2    -0.5    -2.5             4.443 1.9810E-01 3
  29.5   -1     194       36814.74961 A       1  -2    -0.5    -2.5             0.009 9.3700E-01 3
  29.5   -1     218       38629.55297 A       5  -2    -0.5    -2.5             0.010 5.0000E-01 1
  29.5   -1     234        39229.3432 A      10  -2     0.5    -1.5             0.010 5.0000E-01 1
  30.5    1     179       35423.50193 A       0   2     0.5     2.5            17.777 6.3500E-02 5
  30.5    1     196       37479.59023 A       1   2     0.5     2.5             0.010 8.6800E-01 3
  30.5    1     205       38152.47813 A       1   2    -0.5     1.5             0.010 5.0000E-01 1
  30.5    1     230       39229.80573 A      10   2     0.5     2.5             0.010 5.0000E-01 1
  30.5   -1     180       35423.37189 A       0  -2    -0.5    -2.5             1.428 5.0000E-01 2
  30.5   -1     185       36151.60794 A       0  -2     0.5    -1.5             8.234 1.3710E-01 5
  30.5   -1     197       37478.76759 A       1  -2    -0.5    -2.5             0.010 5.0000E-01 1
  30.5   -1     230       39229.50491 A      10  -2    -0.5    -2.5             0.010 5.0000E-01 1
  31.5    1     184       36151.99137 A       0   2     0.5     2.5             1.419 5.0000E-01 2
  31.5    1     189       36891.63054 A       0   2    -0.5     1.5             1.231 5.7600E-01 2
  31.5    1     202       38152.63983 A       1   2     0.5     2.5             0.010 5.0000E-01 1
  31.5    1     217       38835.78792 A       5   2    -0.5     1.5             0.010 5.0000E-01 1
  31.5   -1     183       36152.05777 A       0  -2    -0.5    -2.5            11.966 9.3730E-02 5
  31.5   -1     201        38153.1592 A       1  -2    -0.5    -2.5             0.009 7.5600E-01 2
  31.5   -1     217       38836.00425 A       5  -2     0.5    -1.5             0.014 5.0000E-01 2
  32.5    1     187       36892.49266 A       0   2     0.5     2.5             0.997 5.0000E-01 1
  32.5    1     214       38836.52934 A       5   2     0.5     2.5             0.010 5.0000E-01 1
  32.5   -1     193       37642.90782 A       0  -2     0.5    -1.5             0.522 1.3500E+00 2
  33.5    1     191       37643.48706 A       0   2     0.5     2.5             0.991 5.0000E-01 1
  33.5    1     199        38404.0517 A       0   2    -0.5     1.5            13.943 5.0250E-02 2
  33.5   -1     191       37643.76846 A       0  -2    -0.5    -2.5            13.943 5.0250E-02 2
  34.5    1     197        38404.7529 A       0   2     0.5     2.5             9.802 5.0250E-02 1
  34.5    1     217        39172.8946 A       6   2    -0.5     1.5             0.985 5.0000E-01 1
  34.5   -1     197       38404.75242 A       0  -2    -0.5    -2.5             1.393 5.0000E-01 2
  34.5   -1     217        39173.5984 A       6  -2     0.5    -1.5             9.802 5.0250E-02 1
  35.5    1     212        39173.6421 A       6   2     0.5     2.5             0.979 5.0000E-01 1
  35.5   -1     214       39174.13236 A       6  -2    -0.5    -2.5            16.880 5.0250E-02 3
end
